 vasp.6.2.0 18Jan21 (build Oct 14 2021 17:49:53) complex

 executed on             LinuxIFC date 2022.04.02  12:29:09

 INCAR:
   SYSTEM = TiO2
   ISTART = 0
   ICHARG = 0
   ISMEAR = 0
   SIGMA = 0.01
   LOUT = 10
   ENCUT = 500
   EDIFF = 0.1E-04
   LDAU = .TRUE.
   LDAUTYPE = 2
   LDAUL = 2 -1
   LDAUU = 3.90 0.00
   LDAUJ = 0.00 0.00
   LDAUPRINT = 2
   LMAXMIX = 4

 POTCAR:    PAW_PBE Ti_sv 26Sep2005
 POTCAR:   PAW_PBE O_s 07Sep2000
 POTCAR:    PAW_PBE Ti_sv 26Sep2005
   VRHFIN =Ti: 3p4s3d

   TITEL  = PAW_PBE Ti_sv 26Sep2005
   POMASS =   47.880; ZVAL   =   12.000    mass and valenz
   ENMAX  =  274.610; ENMIN  =  205.957 eV

   TITEL  = PAW_PBE O_s 07Sep2000
   POMASS =   16.000; ZVAL   =    6.000    mass and valenz
   ENMAX  =  282.853; ENMIN  =  212.140 eV

  PAW_PBE Ti_sv 26Sep2005               :
 PAW_PBE O_s 07Sep2000                  :

 POSCAR: Rutile TiO2
  positions in direct lattice
  velocities in cartesian coordinates
 exchange correlation table for  LEXCH =        8
   RHO(1)=    0.500       N(1)  =     2000
   RHO(2)=  100.500       N(2)  =     4000

 ion  position               nearest neighbor table
   1  0.000  0.000  0.000-   3 1.95   4 1.95   3 1.95   4 1.95   5 1.97   6 1.97
   2  0.500  0.500  0.500-   5 1.95   6 1.95   5 1.95   6 1.95   3 1.97   4 1.97
   3  0.196  0.804  0.500-   1 1.95   1 1.95   2 1.97
   4  0.804  0.196  0.500-   1 1.95   1 1.95   2 1.97
   5  0.304  0.304  0.000-   2 1.95   2 1.95   1 1.97
   6  0.696  0.696  0.000-   2 1.95   2 1.95   1 1.97

  LATTYP: Found a simple tetragonal cell.
 ALAT       =     4.5840000000
 C/A-ratio  =     0.6441972077

  Lattice vectors:

 A1 = (   4.5840000000,   0.0000000000,   0.0000000000)
 A2 = (   0.0000000000,   4.5840000000,   0.0000000000)
 A3 = (   0.0000000000,   0.0000000000,   2.9530000000)

Analysis of symmetry for initial positions (statically):
 Subroutine PRICEL returns:
 Original cell was already a primitive cell.

 Routine SETGRP: Setting up the symmetry group for a
 simple tetragonal supercell.

 Subroutine GETGRP returns: Found 16 space group operations
 (whereof  8 operations were pure point group operations)
 out of a pool of 16 trial point group operations.

The static configuration has the point symmetry D_2h.
 The point group associated with its full space group is D_4h.

Analysis of symmetry for dynamics (positions and initial velocities):
 Subroutine PRICEL returns:
 Original cell was already a primitive cell.

 Routine SETGRP: Setting up the symmetry group for a
 simple tetragonal supercell.

 Subroutine GETGRP returns: Found 16 space group operations
 (whereof  8 operations were pure point group operations)
 out of a pool of 16 trial point group operations.

The dynamic configuration has the point symmetry D_2h.
 The point group associated with its full space group is D_4h.

 Subroutine INISYM returns: Found 16 space group operations
 (whereof  8 operations are pure point group operations),
 and found     1 'primitive' translations

                                     Primitive cell

  volume of cell :      62.0516

  direct lattice vectors                    reciprocal lattice vectors
     4.584000000  0.000000000  0.000000000     0.218150087  0.000000000  0.000000000
     0.000000000  4.584000000  0.000000000     0.000000000  0.218150087  0.000000000
     0.000000000  0.000000000  2.953000000     0.000000000  0.000000000  0.338638673

  length of vectors
     4.584000000  4.584000000  2.953000000     0.218150087  0.218150087  0.338638673

  position of ions in fractional coordinates (direct lattice)
     0.000000000  0.000000000  0.000000000
     0.500000000  0.500000000  0.500000000
     0.196236862  0.803763138  0.500000000
     0.803763138  0.196236862  0.500000000
     0.303763138  0.303763138  0.000000000
     0.696236862  0.696236862  0.000000000

  ion indices of the primitive-cell ions
   primitive index   ion index
                 1           1
                 2           2
                 3           3
                 4           4
                 5           5
                 6           6

 KPOINTS: Automatic KPOINTS generation

Automatic generation of k-mesh.
 Grid dimensions read from file:
 generate k-points for:    6    6    6

 Generating k-lattice:

  Cartesian coordinates                     Fractional coordinates (reciprocal lattice)
     0.036358348  0.000000000  0.000000000     0.166666667  0.000000000  0.000000000
     0.000000000  0.036358348  0.000000000     0.000000000  0.166666667  0.000000000
     0.000000000  0.000000000  0.056439779     0.000000000  0.000000000  0.166666667

  Length of vectors
     0.036358348  0.036358348  0.056439779

  Shift w.r.t. Gamma in fractional coordinates (k-lattice)
     0.000000000  0.000000000  0.000000000

 Subroutine IBZKPT returns following result:

 Found     40 irreducible k-points:

 Following reciprocal coordinates:
            Coordinates               Weight
  0.000000  0.000000  0.000000      1.000000
  0.166667  0.000000  0.000000      4.000000
  0.333333  0.000000  0.000000      4.000000
  0.500000  0.000000  0.000000      2.000000
  0.166667  0.166667  0.000000      4.000000
  0.333333  0.166667  0.000000      8.000000
  0.500000  0.166667  0.000000      4.000000
  0.333333  0.333333  0.000000      4.000000
  0.500000  0.333333  0.000000      4.000000
  0.500000  0.500000  0.000000      1.000000
  0.000000  0.000000  0.166667      2.000000
  0.166667  0.000000  0.166667      8.000000
  0.333333  0.000000  0.166667      8.000000
  0.500000  0.000000  0.166667      4.000000
  0.166667  0.166667  0.166667      8.000000
  0.333333  0.166667  0.166667     16.000000
  0.500000  0.166667  0.166667      8.000000
  0.333333  0.333333  0.166667      8.000000
  0.500000  0.333333  0.166667      8.000000
  0.500000  0.500000  0.166667      2.000000
  0.000000  0.000000  0.333333      2.000000
  0.166667  0.000000  0.333333      8.000000
  0.333333  0.000000  0.333333      8.000000
  0.500000  0.000000  0.333333      4.000000
  0.166667  0.166667  0.333333      8.000000
  0.333333  0.166667  0.333333     16.000000
  0.500000  0.166667  0.333333      8.000000
  0.333333  0.333333  0.333333      8.000000
  0.500000  0.333333  0.333333      8.000000
  0.500000  0.500000  0.333333      2.000000
  0.000000  0.000000  0.500000      1.000000
  0.166667  0.000000  0.500000      4.000000
  0.333333  0.000000  0.500000      4.000000
  0.500000  0.000000  0.500000      2.000000
  0.166667  0.166667  0.500000      4.000000
  0.333333  0.166667  0.500000      8.000000
  0.500000  0.166667  0.500000      4.000000
  0.333333  0.333333  0.500000      4.000000
  0.500000  0.333333  0.500000      4.000000
  0.500000  0.500000  0.500000      1.000000

 Following cartesian coordinates:
            Coordinates               Weight
  0.000000  0.000000  0.000000      1.000000
  0.036358  0.000000  0.000000      4.000000
  0.072717  0.000000  0.000000      4.000000
  0.109075  0.000000  0.000000      2.000000
  0.036358  0.036358  0.000000      4.000000
  0.072717  0.036358  0.000000      8.000000
  0.109075  0.036358  0.000000      4.000000
  0.072717  0.072717  0.000000      4.000000
  0.109075  0.072717  0.000000      4.000000
  0.109075  0.109075  0.000000      1.000000
  0.000000  0.000000  0.056440      2.000000
  0.036358  0.000000  0.056440      8.000000
  0.072717  0.000000  0.056440      8.000000
  0.109075  0.000000  0.056440      4.000000
  0.036358  0.036358  0.056440      8.000000
  0.072717  0.036358  0.056440     16.000000
  0.109075  0.036358  0.056440      8.000000
  0.072717  0.072717  0.056440      8.000000
  0.109075  0.072717  0.056440      8.000000
  0.109075  0.109075  0.056440      2.000000
  0.000000  0.000000  0.112880      2.000000
  0.036358  0.000000  0.112880      8.000000
  0.072717  0.000000  0.112880      8.000000
  0.109075  0.000000  0.112880      4.000000
  0.036358  0.036358  0.112880      8.000000
  0.072717  0.036358  0.112880     16.000000
  0.109075  0.036358  0.112880      8.000000
  0.072717  0.072717  0.112880      8.000000
  0.109075  0.072717  0.112880      8.000000
  0.109075  0.109075  0.112880      2.000000
  0.000000  0.000000  0.169319      1.000000
  0.036358  0.000000  0.169319      4.000000
  0.072717  0.000000  0.169319      4.000000
  0.109075  0.000000  0.169319      2.000000
  0.036358  0.036358  0.169319      4.000000
  0.072717  0.036358  0.169319      8.000000
  0.109075  0.036358  0.169319      4.000000
  0.072717  0.072717  0.169319      4.000000
  0.109075  0.072717  0.169319      4.000000
  0.109075  0.109075  0.169319      1.000000

 SYSTEM =  TiO2
 POSCAR =  Rutile TiO2

 Startparameter for this run:
   NWRITE =      2    write-flag & timer
   PREC   = normal    normal or accurate (medium, high low for compatibility)
   ISTART =      0    job   : 0-new  1-cont  2-samecut
   ICHARG =      0    charge: 1-file 2-atom 10-const
   ISPIN  =      1    spin polarized calculation?
   LNONCOLLINEAR =      F non collinear calculations
   LSORBIT =      F    spin-orbit coupling
   INIWAV =      1    electr: 0-lowe 1-rand  2-diag
   LASPH  =      F    aspherical Exc in radial PAW
   METAGGA=      F    non-selfconsistent MetaGGA calc.

 Electronic Relaxation 1
   ENCUT  =  500.0 eV  36.75 Ry    6.06 a.u.   8.36  8.36  5.38*2*pi/ulx,y,z
   ENINI  =  500.0     initial cutoff
   ENAUG  =  482.8 eV  augmentation charge cutoff
   NELM   =     60;   NELMIN=  2; NELMDL= -5     # of ELM steps
   EDIFF  = 0.1E-04   stopping-criterion for ELM
   LREAL  =      F    real-space projection
   NLSPLINE    = F    spline interpolate recip. space projectors
   LCOMPAT=      F    compatible to vasp.4.4
   GGA_COMPAT  = T    GGA compatible to vasp.4.4-vasp.4.6
   LMAXPAW     = -100 max onsite density
   LMAXMIX     =    4 max onsite mixed and CHGCAR
   VOSKOWN=      0    Vosko Wilk Nusair interpolation
   ROPT   =    0.00000   0.00000
 Ionic relaxation
   EDIFFG = 0.1E-03   stopping-criterion for IOM
   NSW    =      0    number of steps for IOM
   NBLOCK =      1;   KBLOCK =      1    inner block; outer block
   IBRION =     -1    ionic relax: 0-MD 1-quasi-New 2-CG
   NFREE  =      0    steps in history (QN), initial steepest desc. (CG)
   ISIF   =      2    stress and relaxation
   IWAVPR =     10    prediction:  0-non 1-charg 2-wave 3-comb
   ISYM   =      2    0-nonsym 1-usesym 2-fastsym
   LCORR  =      T    Harris-Foulkes like correction to forces

   POTIM  = 0.5000    time-step for ionic-motion
   TEIN   =    0.0    initial temperature
   TEBEG  =    0.0;   TEEND  =   0.0 temperature during run
   SMASS  =  -3.00    Nose mass-parameter (am)
   estimated Nose-frequenzy (Omega)   =  0.10E-29 period in steps = 0.13E+47 mass=  -0.480E-27a.u.
   SCALEE = 1.0000    scale energy and forces
   NPACO  =    256;   APACO  = 16.0  distance and # of slots for P.C.
   PSTRESS=    0.0 pullay stress

  Mass of Ions in am
   POMASS =  47.88 16.00
  Ionic Valenz
   ZVAL   =  12.00  6.00
  Atomic Wigner-Seitz radii
  virtual crystal weights
   VCA    =   1.00  1.00
   NELECT =      48.0000    total number of electrons
   NUPDOWN=      -1.0000    fix difference up-down

 DOS related values:
[...]
   3.19154977  3.19154977  0.00000000

 k-point   1 :   0.0000 0.0000 0.0000  plane waves:    1559
 k-point   2 :   0.1667 0.0000 0.0000  plane waves:    1577
 k-point   3 :   0.3333 0.0000 0.0000  plane waves:    1585
 k-point   4 :   0.5000 0.0000 0.0000  plane waves:    1596
 k-point   5 :   0.1667 0.1667 0.0000  plane waves:    1574
 k-point   6 :   0.3333 0.1667 0.0000  plane waves:    1584
 k-point   7 :   0.5000 0.1667 0.0000  plane waves:    1592
 k-point   8 :   0.3333 0.3333 0.0000  plane waves:    1582
 k-point   9 :   0.5000 0.3333 0.0000  plane waves:    1584
 k-point  10 :   0.5000 0.5000 0.0000  plane waves:    1560
 k-point  11 :   0.0000 0.0000 0.1667  plane waves:    1603
 k-point  12 :   0.1667 0.0000 0.1667  plane waves:    1573
 k-point  13 :   0.3333 0.0000 0.1667  plane waves:    1583
 k-point  14 :   0.5000 0.0000 0.1667  plane waves:    1586
 k-point  15 :   0.1667 0.1667 0.1667  plane waves:    1579
 k-point  16 :   0.3333 0.1667 0.1667  plane waves:    1574
 k-point  17 :   0.5000 0.1667 0.1667  plane waves:    1580
 k-point  18 :   0.3333 0.3333 0.1667  plane waves:    1574
 k-point  19 :   0.5000 0.3333 0.1667  plane waves:    1580
 k-point  20 :   0.5000 0.5000 0.1667  plane waves:    1584
 k-point  21 :   0.0000 0.0000 0.3333  plane waves:    1583
 k-point  22 :   0.1667 0.0000 0.3333  plane waves:    1586
 k-point  23 :   0.3333 0.0000 0.3333  plane waves:    1569
 k-point  24 :   0.5000 0.0000 0.3333  plane waves:    1576
 k-point  25 :   0.1667 0.1667 0.3333  plane waves:    1573
 k-point  26 :   0.3333 0.1667 0.3333  plane waves:    1571
 k-point  27 :   0.5000 0.1667 0.3333  plane waves:    1562
 k-point  28 :   0.3333 0.3333 0.3333  plane waves:    1567
 k-point  29 :   0.5000 0.3333 0.3333  plane waves:    1568
 k-point  30 :   0.5000 0.5000 0.3333  plane waves:    1588
 k-point  31 :   0.0000 0.0000 0.5000  plane waves:    1586
 k-point  32 :   0.1667 0.0000 0.5000  plane waves:    1584
 k-point  33 :   0.3333 0.0000 0.5000  plane waves:    1566
 k-point  34 :   0.5000 0.0000 0.5000  plane waves:    1544
 k-point  35 :   0.1667 0.1667 0.5000  plane waves:    1576
 k-point  36 :   0.3333 0.1667 0.5000  plane waves:    1572
 k-point  37 :   0.5000 0.1667 0.5000  plane waves:    1588
 k-point  38 :   0.3333 0.3333 0.5000  plane waves:    1562
 k-point  39 :   0.5000 0.3333 0.5000  plane waves:    1552
 k-point  40 :   0.5000 0.5000 0.5000  plane waves:    1568

 maximum and minimum number of plane-waves per node :      1603     1544

 maximum number of plane-waves:      1603
 maximum index in each direction:
   IXMAX=    8   IYMAX=    8   IZMAX=    5
   IXMIN=   -8   IYMIN=   -8   IZMIN=   -5

 serial   3D FFT for wavefunctions
 parallel 3D FFT for charge:
    minimum data exchange during FFTs selected (reduces bandwidth)

 Broyden mixing: mesh for mixing (old mesh)
   NGX = 17   NGY = 17   NGZ = 11
  (NGX  = 56   NGY  = 56   NGZ  = 32)
  gives a total of   3179 points

 charge density for first step will be calculated from the start-wavefunctions

 Maximum index for augmentation-charges         1905 (set IRDMAX)

 initial charge from wavefunction
 First call to EWALD:  gamma=   0.448
 Maximum number of real-space cells 2x 2x 4
 Maximum number of reciprocal cells 3x 3x 2

--------------------------------------- Iteration      1(   1)  ---------------------------------------

atom =   1  type =  1  l = 2

 onsite density matrix

spin component  1

  0.1979  0.0000  0.0016  0.0000  0.0000
  0.0000  0.1872  0.0000 -0.0022  0.0000
  0.0016  0.0000  0.2025  0.0000  0.0000
  0.0000 -0.0022  0.0000  0.1872  0.0000
  0.0000  0.0000  0.0000  0.0000  0.2042

[...]

 occupancies and eigenvectors

  o =  0.1850  v =  0.0000 -0.7071 -0.0000 -0.7071 -0.0000  0.0000  0.0000  0.0000  0.0000  0.0000      0.0000  0.0000  0.0000  0.0000  0.0000  0.0000  0.0000  0.0000  0.0000  0.0000
  o =  0.1850  v =  0.0000  0.0000  0.0000  0.0000  0.0000  0.0000 -0.7071 -0.0000 -0.7071 -0.0000      0.0000  0.0000  0.0000  0.0000  0.0000  0.0000  0.0000  0.0000  0.0000  0.0000
  o =  0.1894  v = -0.0000  0.7071  0.0000 -0.7071  0.0000  0.0000  0.0000  0.0000  0.0000  0.0000      0.0000  0.0000  0.0000  0.0000  0.0000  0.0000  0.0000  0.0000  0.0000  0.0000
  o =  0.1894  v =  0.0000  0.0000  0.0000  0.0000  0.0000 -0.0000  0.7071  0.0000 -0.7071  0.0000      0.0000  0.0000  0.0000  0.0000  0.0000  0.0000  0.0000  0.0000  0.0000  0.0000
  o =  0.1974  v =  0.0000  0.0000  0.0000  0.0000  0.0000  0.9520  0.0000 -0.3060 -0.0000  0.0000      0.0000  0.0000  0.0000  0.0000  0.0000  0.0000  0.0000  0.0000  0.0000  0.0000
  o =  0.1974  v =  0.9520  0.0000 -0.3060 -0.0000  0.0000  0.0000  0.0000  0.0000  0.0000  0.0000      0.0000  0.0000  0.0000  0.0000  0.0000  0.0000  0.0000  0.0000  0.0000  0.0000
  o =  0.2030  v =  0.0000  0.0000  0.0000  0.0000  0.0000  0.3060 -0.0000  0.9520  0.0000 -0.0000      0.0000  0.0000  0.0000  0.0000  0.0000  0.0000  0.0000  0.0000  0.0000  0.0000
  o =  0.2030  v =  0.3060 -0.0000  0.9520  0.0000 -0.0000  0.0000  0.0000  0.0000  0.0000  0.0000      0.0000  0.0000  0.0000  0.0000  0.0000  0.0000  0.0000  0.0000  0.0000  0.0000
  o =  0.2042  v = -0.0000  0.0000 -0.0000 -0.0000 -1.0000  0.0000  0.0000  0.0000  0.0000  0.0000      0.0000  0.0000  0.0000  0.0000  0.0000  0.0000  0.0000  0.0000  0.0000  0.0000
  o =  0.2042  v =  0.0000  0.0000  0.0000  0.0000  0.0000 -0.0000  0.0000 -0.0000 -0.0000 -1.0000      0.0000  0.0000  0.0000  0.0000  0.0000  0.0000  0.0000  0.0000  0.0000  0.0000

[...]

 eigenvalue-minimisations  :  2436
 total energy-change (2. order) :-0.4508401E+03  (-0.4052893E+04)
 number of electron      47.9999996 magnetization
 augmentation part        3.3697135 magnetization

 Free energy of the ion-electron system (eV)
  alpha Z        PSCENC =       184.33841299
  Ewald energy   TEWEN  =     -3605.37491913
  -Hartree energ DENC   =      -104.66876467
  -exchange      EXHF   =         0.00000000
  -V(xc)+E(xc)   XCENC  =       173.96127755
  PAW double counting   =     59929.92072740   -59936.68491142
  entropy T*S    EENTRO =        -0.00014421
  eigenvalues    EBANDS =     -1997.99007582
  atomic energy  EATOM  =      4905.65827411
  Solvation  Ediel_sol  =         0.00000000
  free energy    TOTEN  =      -450.84012319 eV

  energy without entropy =     -450.83997898  energy(sigma->0) =     -450.84005109

[...]

 Broyden mixing:
  rms(total) = 0.39912E+02    rms(broyden)= 0.39911E+02
  rms(prec ) = 0.52729E+02
  weight for this iteration     100.00

[...]

 eigenvalue-minimisations  :  3456
 total energy-change (2. order) : 0.5853828E+03  (-0.6167474E+03)
 number of electron      47.9999955 magnetization
 augmentation part       17.9319234 magnetization

[...]

 eigenvalues of (default mixing * dielectric matrix)
  average eigenvalue GAMMA=   0.6204
  0.6204

[...]

 eigenvalue-minimisations  :  2616
 total energy-change (2. order) :-0.4532464E-05  (-0.3505940E-04)
 number of electron      47.9999979 magnetization
 augmentation part       11.9881003 magnetization

 Broyden mixing:
  rms(total) = 0.47873E-01    rms(broyden)= 0.47873E-01
  rms(prec ) = 0.47958E-01
  weight for this iteration     100.00

 eigenvalues of (default mixing * dielectric matrix)
  average eigenvalue GAMMA=   2.0505
 16.5123  3.9372  2.7642  2.7642  1.8068  1.8068  1.2807  1.2807  0.1848  1.1900
  1.1900  0.9206  0.9206  0.9770  0.9770  0.5773  0.8329  0.8329  0.7672  0.7672
  0.7692

[...]

--------------------------------------- Iteration      1(  27)  ---------------------------------------

[...]

atom =   2  type =  1  l = 2

 onsite density matrix

[...]

spin component  2

  0.1987  0.0000  0.0768  0.0000  0.0000
  0.0000  0.1863  0.0000  0.0864  0.0000
  0.0768  0.0000  0.1325  0.0000  0.0000
  0.0000  0.0864  0.0000  0.1863  0.0000
  0.0000  0.0000  0.0000  0.0000  0.1020

 occupancies and eigenvectors

  o =  0.0819  v = -0.5496  0.0000  0.8354  0.0000  0.0000  0.0000  0.0000  0.0000  0.0000  0.0000      0.0000  0.0000  0.0000  0.0000  0.0000  0.0000  0.0000  0.0000  0.0000  0.0000
  o =  0.0819  v =  0.0000  0.0000  0.0000  0.0000  0.0000 -0.5496  0.0000  0.8354  0.0000  0.0000      0.0000  0.0000  0.0000  0.0000  0.0000  0.0000  0.0000  0.0000  0.0000  0.0000
  o =  0.0999  v =  0.0000  0.7071  0.0000 -0.7071  0.0000  0.0000  0.0000  0.0000  0.0000  0.0000      0.0000  0.0000  0.0000  0.0000  0.0000  0.0000  0.0000  0.0000  0.0000  0.0000
  o =  0.0999  v =  0.0000  0.0000  0.0000  0.0000  0.0000  0.0000  0.7071  0.0000 -0.7071  0.0000      0.0000  0.0000  0.0000  0.0000  0.0000  0.0000  0.0000  0.0000  0.0000  0.0000
  o =  0.1020  v =  0.0000 -0.0000 -0.0000  0.0000  1.0000  0.0000  0.0000  0.0000  0.0000  0.0000      0.0000  0.0000  0.0000  0.0000  0.0000  0.0000  0.0000  0.0000  0.0000  0.0000
  o =  0.1020  v =  0.0000  0.0000  0.0000  0.0000  0.0000  0.0000 -0.0000 -0.0000  0.0000  1.0000      0.0000  0.0000  0.0000  0.0000  0.0000  0.0000  0.0000  0.0000  0.0000  0.0000
  o =  0.2492  v = -0.8354  0.0000 -0.5496  0.0000 -0.0000  0.0000  0.0000  0.0000  0.0000  0.0000      0.0000  0.0000  0.0000  0.0000  0.0000  0.0000  0.0000  0.0000  0.0000  0.0000
  o =  0.2492  v =  0.0000  0.0000  0.0000  0.0000  0.0000 -0.8354  0.0000 -0.5496  0.0000 -0.0000      0.0000  0.0000  0.0000  0.0000  0.0000  0.0000  0.0000  0.0000  0.0000  0.0000
  o =  0.2726  v =  0.0000  0.0000  0.0000  0.0000  0.0000  0.0000  0.7071  0.0000  0.7071  0.0000      0.0000  0.0000  0.0000  0.0000  0.0000  0.0000  0.0000  0.0000  0.0000  0.0000
  o =  0.2726  v =  0.0000  0.7071  0.0000  0.7071  0.0000  0.0000  0.0000  0.0000  0.0000  0.0000      0.0000  0.0000  0.0000  0.0000  0.0000  0.0000  0.0000  0.0000  0.0000  0.0000

 eigenvalue-minimisations  :  2348
 total energy-change (2. order) : 0.4954591E-06  (-0.5880530E-05)
 number of electron      47.9999979 magnetization
 augmentation part       11.9881003 magnetization

 Free energy of the ion-electron system (eV)
  alpha Z        PSCENC =       184.33841299
  Ewald energy   TEWEN  =     -3605.37491913
  -Hartree energ DENC   =     -1218.04000177
  -exchange      EXHF   =         0.00000000
  -V(xc)+E(xc)   XCENC  =       236.15118916
  PAW double counting   =      7135.50566495    -7105.89652748
  entropy T*S    EENTRO =        -0.00000000
  eigenvalues    EBANDS =      -580.74595119
  atomic energy  EATOM  =      4905.65827411
  Solvation  Ediel_sol  =         0.00000000
  free energy    TOTEN  =       -48.40385836 eV

  energy without entropy =      -48.40385836  energy(sigma->0) =      -48.40385836

 average (electrostatic) potential at core
  the test charge radii are     1.0397  0.8742
  (the norm of the test charge is              1.0000)
       1 -76.5327       2 -76.5327       3 -78.5866       4 -78.5866       5 -78.5866
       6 -78.5866

 E-fermi :   5.7470     XC(G=0): -11.4649     alpha+bet :-14.2541

 Fermi energy:         5.7470272082

 k-point     1 :       0.0000    0.0000    0.0000
  band No.  band energies     occupation
      1     -52.3490      2.00000
      2     -52.3324      2.00000
      3     -28.6056      2.00000
      4     -28.6056      2.00000
      5     -28.4525      2.00000
      6     -28.4525      2.00000
      7     -28.4081      2.00000
      8     -28.3756      2.00000
      9     -12.7792      2.00000
     10     -11.5101      2.00000
     11     -10.8486      2.00000
     12     -10.8486      2.00000
     13      -0.3039      2.00000
     14       0.2489      2.00000
     15       0.6634      2.00000
     16       1.7463      2.00000
     17       1.7463      2.00000
     18       2.8712      2.00000
     19       2.8712      2.00000
     20       3.4375      2.00000
     21       4.7665      2.00000
     22       5.0523      2.00000
     23       5.0523      2.00000
     24       5.6013      2.00000
     25       7.9435      0.00000
     26       8.1367      0.00000
     27       8.5908      0.00000
     28       8.5908      0.00000

[...]

 k-point    40 :       0.5000    0.5000    0.5000
  band No.  band energies     occupation
      1     -52.3013      2.00000
      2     -52.3013      2.00000
      3     -28.8185      2.00000
      4     -28.8185      2.00000
      5     -28.4745      2.00000
      6     -28.4745      2.00000
      7     -28.4577      2.00000
      8     -28.4577      2.00000
      9     -11.3992      2.00000
     10     -11.3992      2.00000
     11     -11.1722      2.00000
     12     -11.1722      2.00000
     13       0.7809      2.00000
     14       0.7809      2.00000
     15       0.7881      2.00000
     16       0.7881      2.00000
     17       1.9967      2.00000
     18       1.9967      2.00000
     19       2.7401      2.00000
     20       2.7401      2.00000
     21       4.3051      2.00000
     22       4.3051      2.00000
     23       4.8596      2.00000
     24       4.8596      2.00000
     25       8.6760      0.00000
     26       8.6760      0.00000
     27       9.2270      0.00000
     28       9.2814      0.00000

 soft charge-density along one line, spin component           1
         0         1         2         3         4         5         6         7         8         9
 total charge-density along one line

------------------------ aborting loop because EDIFF is reached ----------------------------------------

  FORCE on cell =-STRESS in cart. coord.  units (eV):
  Direction    XX          YY          ZZ          XY          YZ          ZX
  Alpha Z   184.33841   184.33841   184.33841
  Ewald   -1386.22826 -1386.22826  -832.92112    -0.00000    -0.00000    -0.00000
  Hartree   302.03172   302.03172   613.89550    -0.00000    -0.00000    -0.00000
  E(xc)    -246.74067  -246.74067  -246.07833    -0.00000    -0.00000    -0.00000
  Local      84.02248    84.02248  -769.36404     0.00000    -0.00000    -0.00000
  n-local    15.60832    17.00635    11.93320    -0.93811    -0.03062    -0.18813
  augment   289.92114   289.92114   289.67359    -0.00000    -0.00000     0.00000
  Kinetic   762.79219   759.77581   755.33587     0.02365    -0.56144    -0.98453
  Fock        0.00000     0.00000     0.00000     0.00000     0.00000     0.00000
  Total       4.93616     4.93616     6.81307     0.00000     0.00000     0.00000
  in kB     127.45226   127.45226   175.91422     0.00000     0.00000     0.00000

 VOLUME and BASIS-vectors are now :
  energy-cutoff  :      500.00
  volume of cell :       62.05
      direct lattice vectors                 reciprocal lattice vectors
     4.584000000  0.000000000  0.000000000     0.218150087  0.000000000  0.000000000
     0.000000000  4.584000000  0.000000000     0.000000000  0.218150087  0.000000000
     0.000000000  0.000000000  2.953000000     0.000000000  0.000000000  0.338638673

  length of vectors
     4.584000000  4.584000000  2.953000000     0.218150087  0.218150087  0.338638673

 FORCES acting on ions
    electron-ion (+dipol)            ewald-force                    non-local-force                 convergence-correction
   0.790E-13 -.100E-13 -.655E-13   0.142E-12 0.142E-12 0.108E-13   0.131E-22 0.155E-22 -.325E-22   -.198E-12 -.412E-13 0.101E-13
   0.103E-11 0.406E-11 0.297E-11   0.284E-13 -.114E-12 0.129E-13   -.716E-23 0.896E-23 -.195E-22   0.253E-13 0.292E-15 0.207E-13
   -.413E+02 0.413E+02 -.780E-12   0.454E+02 -.454E+02 -.865E-14   -.401E+01 0.401E+01 -.977E-19   -.121E-02 0.121E-02 0.123E-12
   0.413E+02 -.413E+02 -.685E-11   -.454E+02 0.454E+02 -.882E-14   0.401E+01 -.401E+01 -.443E-18   0.121E-02 -.121E-02 -.108E-12
   0.413E+02 0.413E+02 0.177E-06   -.454E+02 -.454E+02 -.855E-14   0.401E+01 0.401E+01 -.118E-17   0.121E-02 0.121E-02 -.231E-13
   -.413E+02 -.413E+02 -.177E-06   0.454E+02 0.454E+02 -.855E-14   -.401E+01 -.401E+01 -.870E-18   -.121E-02 -.121E-02 0.270E-13
   -.232E-11 0.559E-11 0.270E-11   0.000E+00 -.711E-14 -.108E-13   -.888E-15 0.000E+00 -.259E-17   -.146E-12 -.215E-13 0.493E-13

 POSITION                                       TOTAL-FORCE (eV/Angst)
      0.00000      0.00000      0.00000        -0.000000      0.000000     -0.000000
      2.29200      2.29200      1.47650         0.000000      0.000000     -0.000000
      0.89955      3.68445      1.47650         0.068955     -0.068955     -0.000000
      3.68445      0.89955      1.47650        -0.068955      0.068955      0.000000
      1.39245      1.39245      0.00000        -0.068955     -0.068955     -0.000000
      3.19155      3.19155      0.00000         0.068955      0.068955      0.000000
    total drift:                               -0.000000      0.000000      0.000000

  FREE ENERGIE OF THE ION-ELECTRON SYSTEM (eV)
  free  energy   TOTEN  =       -48.40385836 eV

  energy  without entropy=      -48.40385836  energy(sigma->0) =      -48.40385836

 writing wavefunctions