 vasp.6.2.0 18Jan21 (build Oct 14 2021 17:49:53) complex

 executed on             LinuxIFC date 2022.04.02  10:43:29

 INCAR:
   SYSTEM = TiO2
   ISTART = 1
   ICHARG = 11
   ISMEAR = 0
   SIGMA = 0.01
   LOUT = 10
   ENCUT = 460
   EDIFF = 0.1E-04

 POTCAR:    PAW_PBE Ti_sv 26Sep2005
 POTCAR:   PAW_PBE O_s 07Sep2000
 POTCAR:    PAW_PBE Ti_sv 26Sep2005
   VRHFIN =Ti: 3p4s3d

   TITEL  = PAW_PBE Ti_sv 26Sep2005
   POMASS =   47.880; ZVAL   =   12.000    mass and valenz
   ENMAX  =  274.610; ENMIN  =  205.957 eV

   TITEL  = PAW_PBE O_s 07Sep2000
   POMASS =   16.000; ZVAL   =    6.000    mass and valenz
   ENMAX  =  282.853; ENMIN  =  212.140 eV

  PAW_PBE Ti_sv 26Sep2005               :
 PAW_PBE O_s 07Sep2000                  :

 POSCAR: Rutile TiO2
  positions in direct lattice
  velocities in cartesian coordinates
 exchange correlation table for  LEXCH =        8
   RHO(1)=    0.500       N(1)  =     2000
   RHO(2)=  100.500       N(2)  =     4000

 ion  position               nearest neighbor table
   1  0.000  0.000  0.000-   3 1.95   4 1.95   3 1.95   4 1.95   5 1.97   6 1.97
   2  0.500  0.500  0.500-   5 1.95   6 1.95   5 1.95   6 1.95   3 1.97   4 1.97
   3  0.196  0.804  0.500-   1 1.95   1 1.95   2 1.97
   4  0.804  0.196  0.500-   1 1.95   1 1.95   2 1.97
   5  0.304  0.304  0.000-   2 1.95   2 1.95   1 1.97
   6  0.696  0.696  0.000-   2 1.95   2 1.95   1 1.97

  LATTYP: Found a simple tetragonal cell.
 ALAT       =     4.5840000000
 C/A-ratio  =     0.6441972077

  Lattice vectors:

 A1 = (   4.5840000000,   0.0000000000,   0.0000000000)
 A2 = (   0.0000000000,   4.5840000000,   0.0000000000)
 A3 = (   0.0000000000,   0.0000000000,   2.9530000000)

Analysis of symmetry for initial positions (statically):
 Subroutine PRICEL returns:
 Original cell was already a primitive cell.

 Routine SETGRP: Setting up the symmetry group for a
 simple tetragonal supercell.

 Subroutine GETGRP returns: Found 16 space group operations
 (whereof  8 operations were pure point group operations)
 out of a pool of 16 trial point group operations.

The static configuration has the point symmetry D_2h.
 The point group associated with its full space group is D_4h.

Analysis of symmetry for dynamics (positions and initial velocities):
 Subroutine PRICEL returns:
 Original cell was already a primitive cell.

 Routine SETGRP: Setting up the symmetry group for a
 simple tetragonal supercell.

 Subroutine GETGRP returns: Found 16 space group operations
 (whereof  8 operations were pure point group operations)
 out of a pool of 16 trial point group operations.

The dynamic configuration has the point symmetry D_2h.
 The point group associated with its full space group is D_4h.

 Subroutine INISYM returns: Found 16 space group operations
 (whereof  8 operations are pure point group operations),
 and found     1 'primitive' translations

                                     Primitive cell

  volume of cell :      62.0516

  direct lattice vectors                    reciprocal lattice vectors
     4.584000000  0.000000000  0.000000000     0.218150087  0.000000000  0.000000000
     0.000000000  4.584000000  0.000000000     0.000000000  0.218150087  0.000000000
     0.000000000  0.000000000  2.953000000     0.000000000  0.000000000  0.338638673

  length of vectors
     4.584000000  4.584000000  2.953000000     0.218150087  0.218150087  0.338638673

  position of ions in fractional coordinates (direct lattice)
     0.000000000  0.000000000  0.000000000
     0.500000000  0.500000000  0.500000000
     0.196209329  0.803790671  0.500000000
     0.803790671  0.196209329  0.500000000
     0.303790671  0.303790671  0.000000000
     0.696209329  0.696209329  0.000000000

  ion indices of the primitive-cell ions
   primitive index   ion index
                 1           1
                 2           2
                 3           3
                 4           4
                 5           5
                 6           6

 KPOINTS: K-Path Generated by VASPKIT.

Interpolating k-points between supplied coordinates.

 Line segments in fractional coordinates (reciprocal lattice):
    0.000000  0.000000  0.000000  ...  0.000000  0.500000  0.000000
    0.000000  0.500000  0.000000  ...  0.500000  0.500000  0.000000
    0.500000  0.500000  0.000000  ...  0.000000  0.000000  0.000000
    0.000000  0.000000  0.000000  ...  0.000000  0.000000  0.500000
    0.000000  0.000000  0.500000  ...  0.000000  0.500000  0.500000
    0.000000  0.500000  0.500000  ...  0.500000  0.500000  0.500000
    0.500000  0.500000  0.500000  ...  0.000000  0.000000  0.500000
    0.000000  0.500000  0.000000  ...  0.000000  0.500000  0.500000
    0.500000  0.500000  0.000000  ...  0.500000  0.500000  0.500000

 Generated    20 points on each line segment, for a total of    180 k-points:

 Following reciprocal coordinates:
            Coordinates               Weight
  0.000000  0.000000  0.000000      0.005556
  0.000000  0.026316  0.000000      0.005556
  0.000000  0.052632  0.000000      0.005556
  0.000000  0.078947  0.000000      0.005556
  0.000000  0.105263  0.000000      0.005556
  0.000000  0.131579  0.000000      0.005556
  0.000000  0.157895  0.000000      0.005556
  0.000000  0.184211  0.000000      0.005556
  0.000000  0.210526  0.000000      0.005556
  0.000000  0.236842  0.000000      0.005556
  0.000000  0.263158  0.000000      0.005556
  0.000000  0.289474  0.000000      0.005556
  0.000000  0.315789  0.000000      0.005556
  0.000000  0.342105  0.000000      0.005556
  0.000000  0.368421  0.000000      0.005556
  0.000000  0.394737  0.000000      0.005556
  0.000000  0.421053  0.000000      0.005556
  0.000000  0.447368  0.000000      0.005556
  0.000000  0.473684  0.000000      0.005556
  0.000000  0.500000  0.000000      0.005556
  0.000000  0.500000  0.000000      0.005556
  0.026316  0.500000  0.000000      0.005556
  0.052632  0.500000  0.000000      0.005556
  0.078947  0.500000  0.000000      0.005556
  0.105263  0.500000  0.000000      0.005556
  0.131579  0.500000  0.000000      0.005556
  0.157895  0.500000  0.000000      0.005556
  0.184211  0.500000  0.000000      0.005556
  0.210526  0.500000  0.000000      0.005556
  0.236842  0.500000  0.000000      0.005556
  0.263158  0.500000  0.000000      0.005556
  0.289474  0.500000  0.000000      0.005556
  0.315789  0.500000  0.000000      0.005556
  0.342105  0.500000  0.000000      0.005556
  0.368421  0.500000  0.000000      0.005556
  0.394737  0.500000  0.000000      0.005556
  0.421053  0.500000  0.000000      0.005556
  0.447368  0.500000  0.000000      0.005556
  0.473684  0.500000  0.000000      0.005556
  0.500000  0.500000  0.000000      0.005556
  0.500000  0.500000  0.000000      0.005556
  0.473684  0.473684  0.000000      0.005556
  0.447368  0.447368  0.000000      0.005556
  0.421053  0.421053  0.000000      0.005556
  0.394737  0.394737  0.000000      0.005556
  0.368421  0.368421  0.000000      0.005556
  0.342105  0.342105  0.000000      0.005556
  0.315789  0.315789  0.000000      0.005556
  0.289474  0.289474  0.000000      0.005556
  0.263158  0.263158  0.000000      0.005556
  0.236842  0.236842  0.000000      0.005556
  0.210526  0.210526  0.000000      0.005556
  0.184211  0.184211  0.000000      0.005556
  0.157895  0.157895  0.000000      0.005556
  0.131579  0.131579  0.000000      0.005556
  0.105263  0.105263  0.000000      0.005556
  0.078947  0.078947  0.000000      0.005556
  0.052632  0.052632  0.000000      0.005556
  0.026316  0.026316  0.000000      0.005556
  0.000000  0.000000  0.000000      0.005556
[...]
  0.500000  0.500000  0.131579      0.005556
  0.500000  0.500000  0.157895      0.005556
  0.500000  0.500000  0.184211      0.005556
  0.500000  0.500000  0.210526      0.005556
  0.500000  0.500000  0.236842      0.005556
  0.500000  0.500000  0.263158      0.005556
  0.500000  0.500000  0.289474      0.005556
  0.500000  0.500000  0.315789      0.005556
  0.500000  0.500000  0.342105      0.005556
  0.500000  0.500000  0.368421      0.005556
  0.500000  0.500000  0.394737      0.005556
  0.500000  0.500000  0.421053      0.005556
  0.500000  0.500000  0.447368      0.005556
  0.500000  0.500000  0.473684      0.005556
  0.500000  0.500000  0.500000      0.005556

 Following cartesian coordinates:
            Coordinates               Weight
  0.000000  0.000000  0.000000      0.005556
  0.000000  0.005741  0.000000      0.005556
  0.000000  0.011482  0.000000      0.005556
  0.000000  0.017222  0.000000      0.005556
  0.000000  0.022963  0.000000      0.005556
  0.000000  0.028704  0.000000      0.005556
  0.000000  0.034445  0.000000      0.005556
  0.000000  0.040186  0.000000      0.005556
  0.000000  0.045926  0.000000      0.005556
  0.000000  0.051667  0.000000      0.005556
  0.000000  0.057408  0.000000      0.005556
  0.000000  0.063149  0.000000      0.005556
  0.000000  0.068890  0.000000      0.005556
  0.000000  0.074630  0.000000      0.005556
  0.000000  0.080371  0.000000      0.005556
  0.000000  0.086112  0.000000      0.005556
  0.000000  0.091853  0.000000      0.005556
  0.000000  0.097593  0.000000      0.005556
  0.000000  0.103334  0.000000      0.005556
  0.000000  0.109075  0.000000      0.005556
  0.000000  0.109075  0.000000      0.005556
  0.005741  0.109075  0.000000      0.005556
  0.011482  0.109075  0.000000      0.005556
  0.017222  0.109075  0.000000      0.005556
  0.022963  0.109075  0.000000      0.005556
  0.028704  0.109075  0.000000      0.005556
  0.034445  0.109075  0.000000      0.005556
  0.040186  0.109075  0.000000      0.005556
  0.045926  0.109075  0.000000      0.005556
  0.051667  0.109075  0.000000      0.005556
  0.057408  0.109075  0.000000      0.005556
  0.063149  0.109075  0.000000      0.005556
  0.068890  0.109075  0.000000      0.005556
  0.074630  0.109075  0.000000      0.005556
  0.080371  0.109075  0.000000      0.005556
  0.086112  0.109075  0.000000      0.005556
  0.091853  0.109075  0.000000      0.005556
  0.097593  0.109075  0.000000      0.005556
  0.103334  0.109075  0.000000      0.005556
  0.109075  0.109075  0.000000      0.005556
  0.109075  0.109075  0.000000      0.005556
  0.103334  0.103334  0.000000      0.005556
  0.097593  0.097593  0.000000      0.005556
  0.091853  0.091853  0.000000      0.005556
  0.086112  0.086112  0.000000      0.005556
  0.080371  0.080371  0.000000      0.005556
  0.074630  0.074630  0.000000      0.005556
  0.068890  0.068890  0.000000      0.005556
  0.063149  0.063149  0.000000      0.005556
  0.057408  0.057408  0.000000      0.005556
  0.051667  0.051667  0.000000      0.005556
  0.045926  0.045926  0.000000      0.005556
  0.040186  0.040186  0.000000      0.005556
  0.034445  0.034445  0.000000      0.005556
  0.028704  0.028704  0.000000      0.005556
  0.022963  0.022963  0.000000      0.005556
  0.017222  0.017222  0.000000      0.005556
  0.011482  0.011482  0.000000      0.005556
  0.005741  0.005741  0.000000      0.005556
  0.000000  0.000000  0.000000      0.005556
[...]
  0.109075  0.109075  0.044558      0.005556
  0.109075  0.109075  0.053469      0.005556
[...]
   0.00000000  0.47368421  0.00000000       0.006
   0.00000000  0.50000000  0.00000000       0.006
   0.00000000  0.50000000  0.00000000       0.006
   0.02631579  0.50000000  0.00000000       0.006
   0.05263158  0.50000000  0.00000000       0.006
   0.07894737  0.50000000  0.00000000       0.006
   0.10526316  0.50000000  0.00000000       0.006
   0.13157895  0.50000000  0.00000000       0.006
   0.15789474  0.50000000  0.00000000       0.006
   0.18421053  0.50000000  0.00000000       0.006
   0.21052632  0.50000000  0.00000000       0.006
   0.23684211  0.50000000  0.00000000       0.006
   0.26315789  0.50000000  0.00000000       0.006
   0.28947368  0.50000000  0.00000000       0.006
   0.31578947  0.50000000  0.00000000       0.006
   0.34210526  0.50000000  0.00000000       0.006
   0.36842105  0.50000000  0.00000000       0.006
   0.39473684  0.50000000  0.00000000       0.006
   0.42105263  0.50000000  0.00000000       0.006
   0.44736842  0.50000000  0.00000000       0.006
   0.47368421  0.50000000  0.00000000       0.006
   0.50000000  0.50000000  0.00000000       0.006
   0.50000000  0.50000000  0.00000000       0.006
   0.47368421  0.47368421  0.00000000       0.006
   0.44736842  0.44736842  0.00000000       0.006
   0.42105263  0.42105263  0.00000000       0.006
   0.39473684  0.39473684  0.00000000       0.006
   0.36842105  0.36842105  0.00000000       0.006
   0.34210526  0.34210526  0.00000000       0.006
   0.31578947  0.31578947  0.00000000       0.006
   0.28947368  0.28947368  0.00000000       0.006
   0.26315789  0.26315789  0.00000000       0.006
   0.23684211  0.23684211  0.00000000       0.006
   0.21052632  0.21052632  0.00000000       0.006
   0.18421053  0.18421053  0.00000000       0.006
   0.15789474  0.15789474  0.00000000       0.006
   0.13157895  0.13157895  0.00000000       0.006
   0.10526316  0.10526316  0.00000000       0.006
   0.07894737  0.07894737  0.00000000       0.006
   0.05263158  0.05263158  0.00000000       0.006
   0.02631579  0.02631579  0.00000000       0.006
   0.00000000  0.00000000  0.00000000       0.006
[...]
   0.50000000  0.50000000  0.13157895       0.006
   0.50000000  0.50000000  0.15789474       0.006
   0.50000000  0.50000000  0.18421053       0.006
   0.50000000  0.50000000  0.21052632       0.006
   0.50000000  0.50000000  0.23684211       0.006
   0.50000000  0.50000000  0.26315789       0.006
   0.50000000  0.50000000  0.28947368       0.006
   0.50000000  0.50000000  0.31578947       0.006
   0.50000000  0.50000000  0.34210526       0.006
   0.50000000  0.50000000  0.36842105       0.006
   0.50000000  0.50000000  0.39473684       0.006
   0.50000000  0.50000000  0.42105263       0.006
   0.50000000  0.50000000  0.44736842       0.006
   0.50000000  0.50000000  0.47368421       0.006
   0.50000000  0.50000000  0.50000000       0.006

 position of ions in fractional coordinates (direct lattice)
   0.00000000  0.00000000  0.00000000
   0.50000000  0.50000000  0.50000000
   0.19620933  0.80379067  0.50000000
   0.80379067  0.19620933  0.50000000
   0.30379067  0.30379067  0.00000000
   0.69620933  0.69620933  0.00000000

 position of ions in cartesian coordinates  (Angst):
   0.00000000  0.00000000  0.00000000
   2.29200000  2.29200000  1.47650000
   0.89942357  3.68457643  1.47650000
   3.68457643  0.89942357  1.47650000
   1.39257643  1.39257643  0.00000000
   3.19142357  3.19142357  0.00000000

 k-point   1 :   0.0000 0.0000 0.0000  plane waves:    1399
 k-point   2 :   0.0000 0.0263 0.0000  plane waves:    1396
 k-point   3 :   0.0000 0.0526 0.0000  plane waves:    1402
 k-point   4 :   0.0000 0.0789 0.0000  plane waves:    1398
 k-point   5 :   0.0000 0.1053 0.0000  plane waves:    1392
 k-point   6 :   0.0000 0.1316 0.0000  plane waves:    1384
 k-point   7 :   0.0000 0.1579 0.0000  plane waves:    1378
 k-point   8 :   0.0000 0.1842 0.0000  plane waves:    1382
 k-point   9 :   0.0000 0.2105 0.0000  plane waves:    1386
 k-point  10 :   0.0000 0.2368 0.0000  plane waves:    1382
 k-point  11 :   0.0000 0.2632 0.0000  plane waves:    1392
 k-point  12 :   0.0000 0.2895 0.0000  plane waves:    1386
 k-point  13 :   0.0000 0.3158 0.0000  plane waves:    1382
 k-point  14 :   0.0000 0.3421 0.0000  plane waves:    1380
 k-point  15 :   0.0000 0.3684 0.0000  plane waves:    1380
 k-point  16 :   0.0000 0.3947 0.0000  plane waves:    1378
 k-point  17 :   0.0000 0.4211 0.0000  plane waves:    1382
 k-point  18 :   0.0000 0.4474 0.0000  plane waves:    1380
 k-point  19 :   0.0000 0.4737 0.0000  plane waves:    1376
 k-point  20 :   0.0000 0.5000 0.0000  plane waves:    1380
 k-point  21 :   0.0000 0.5000 0.0000  plane waves:    1380
 k-point  22 :   0.0263 0.5000 0.0000  plane waves:    1378
 k-point  23 :   0.0526 0.5000 0.0000  plane waves:    1370
 k-point  24 :   0.0789 0.5000 0.0000  plane waves:    1378
 k-point  25 :   0.1053 0.5000 0.0000  plane waves:    1378
 k-point  26 :   0.1316 0.5000 0.0000  plane waves:    1380
 k-point  27 :   0.1579 0.5000 0.0000  plane waves:    1392
 k-point  28 :   0.1842 0.5000 0.0000  plane waves:    1396
 k-point  29 :   0.2105 0.5000 0.0000  plane waves:    1396
 k-point  30 :   0.2368 0.5000 0.0000  plane waves:    1394
 k-point  31 :   0.2632 0.5000 0.0000  plane waves:    1390
 k-point  32 :   0.2895 0.5000 0.0000  plane waves:    1398
 k-point  33 :   0.3158 0.5000 0.0000  plane waves:    1400
 k-point  34 :   0.3421 0.5000 0.0000  plane waves:    1396
 k-point  35 :   0.3684 0.5000 0.0000  plane waves:    1390
 k-point  36 :   0.3947 0.5000 0.0000  plane waves:    1392
 k-point  37 :   0.4211 0.5000 0.0000  plane waves:    1388
 k-point  38 :   0.4474 0.5000 0.0000  plane waves:    1388
 k-point  39 :   0.4737 0.5000 0.0000  plane waves:    1380
 k-point  40 :   0.5000 0.5000 0.0000  plane waves:    1400
 k-point  41 :   0.5000 0.5000 0.0000  plane waves:    1400
 k-point  42 :   0.4737 0.4737 0.0000  plane waves:    1376
 k-point  43 :   0.4474 0.4474 0.0000  plane waves:    1384
 k-point  44 :   0.4211 0.4211 0.0000  plane waves:    1390
 k-point  45 :   0.3947 0.3947 0.0000  plane waves:    1386
 k-point  46 :   0.3684 0.3684 0.0000  plane waves:    1392
 k-point  47 :   0.3421 0.3421 0.0000  plane waves:    1396
 k-point  48 :   0.3158 0.3158 0.0000  plane waves:    1393
 k-point  49 :   0.2895 0.2895 0.0000  plane waves:    1395
 k-point  50 :   0.2632 0.2632 0.0000  plane waves:    1403
 k-point  51 :   0.2368 0.2368 0.0000  plane waves:    1399
 k-point  52 :   0.2105 0.2105 0.0000  plane waves:    1397
 k-point  53 :   0.1842 0.1842 0.0000  plane waves:    1399
 k-point  54 :   0.1579 0.1579 0.0000  plane waves:    1387
 k-point  55 :   0.1316 0.1316 0.0000  plane waves:    1385
 k-point  56 :   0.1053 0.1053 0.0000  plane waves:    1387
 k-point  57 :   0.0789 0.0789 0.0000  plane waves:    1395
 k-point  58 :   0.0526 0.0526 0.0000  plane waves:    1397
 k-point  59 :   0.0263 0.0263 0.0000  plane waves:    1397
 k-point  60 :   0.0000 0.0000 0.0000  plane waves:    1399
[...]
 k-point 166 :   0.5000 0.5000 0.1316  plane waves:    1384
 k-point 167 :   0.5000 0.5000 0.1579  plane waves:    1400
 k-point 168 :   0.5000 0.5000 0.1842  plane waves:    1392
 k-point 169 :   0.5000 0.5000 0.2105  plane waves:    1408
 k-point 170 :   0.5000 0.5000 0.2368  plane waves:    1408
 k-point 171 :   0.5000 0.5000 0.2632  plane waves:    1404
 k-point 172 :   0.5000 0.5000 0.2895  plane waves:    1404
 k-point 173 :   0.5000 0.5000 0.3158  plane waves:    1404
 k-point 174 :   0.5000 0.5000 0.3421  plane waves:    1404
 k-point 175 :   0.5000 0.5000 0.3684  plane waves:    1408
 k-point 176 :   0.5000 0.5000 0.3947  plane waves:    1408
 k-point 177 :   0.5000 0.5000 0.4211  plane waves:    1408
 k-point 178 :   0.5000 0.5000 0.4474  plane waves:    1416
 k-point 179 :   0.5000 0.5000 0.4737  plane waves:    1432
 k-point 180 :   0.5000 0.5000 0.5000  plane waves:    1432

 maximum and minimum number of plane-waves per node :      1432     1354

 maximum number of plane-waves:      1432
 maximum index in each direction:
   IXMAX=    8   IYMAX=    8   IZMAX=    5
   IXMIN=   -8   IYMIN=   -8   IZMIN=   -5

 serial   3D FFT for wavefunctions
 parallel 3D FFT for charge:
    minimum data exchange during FFTs selected (reduces bandwidth)

 initial charge density was supplied:
 number of electron      47.9999860 magnetization
 keeping initial charge density in first step

 Maximum index for augmentation-charges         5587 (set IRDMAX)

 First call to EWALD:  gamma=   0.448
 Maximum number of real-space cells 2x 2x 4
 Maximum number of reciprocal cells 3x 3x 2

--------------------------------------- Iteration      1(   1)  ---------------------------------------

 eigenvalue-minimisations  : 14032
 total energy-change (2. order) :-0.4391584E+02  (-0.5997030E+02)
 number of electron      47.9999860 magnetization
 augmentation part       47.9999860 magnetization

 Free energy of the ion-electron system (eV)
  alpha Z        PSCENC =       184.33841299
  Ewald energy   TEWEN  =     -3605.32907450
  -Hartree energ DENC   =     -1224.17587072
  -exchange      EXHF   =         0.00000000
  -V(xc)+E(xc)   XCENC  =       236.18856659
  PAW double counting   =      7133.72201308    -7106.42037558
  entropy T*S    EENTRO =        -0.00000000
  eigenvalues    EBANDS =      -567.87876570
  atomic energy  EATOM  =      4905.63925112
  Solvation  Ediel_sol  =         0.00000000
  free energy    TOTEN  =       -43.91584270 eV

  energy without entropy =      -43.91584270  energy(sigma->0) =      -43.91584270

[...]

--------------------------------------- Iteration      1(   6)  ---------------------------------------

 eigenvalue-minimisations  :  8468
 total energy-change (2. order) :-0.1583432E-05  (-0.1583137E-05)
 number of electron      47.9999860 magnetization
 augmentation part       47.9999860 magnetization

 Free energy of the ion-electron system (eV)
  alpha Z        PSCENC =       184.33841299
  Ewald energy   TEWEN  =     -3605.32907450
  -Hartree energ DENC   =     -1224.17587072
  -exchange      EXHF   =         0.00000000
  -V(xc)+E(xc)   XCENC  =       236.18856659
  PAW double counting   =      7133.72201308    -7106.42037558
  entropy T*S    EENTRO =        -0.00000000
  eigenvalues    EBANDS =      -577.14288510
  atomic energy  EATOM  =      4905.63925112
  Solvation  Ediel_sol  =         0.00000000
  free energy    TOTEN  =       -53.17996210 eV

  energy without entropy =      -53.17996210  energy(sigma->0) =      -53.17996210

 average (electrostatic) potential at core
  the test charge radii are     1.0397  0.8742
  (the norm of the test charge is              1.0000)
       1 -75.7692       2 -75.7692       3 -78.9089       4 -78.9089       5 -78.9089
       6 -78.9089

 E-fermi :   5.3568     XC(G=0): -11.4528     alpha+bet :-14.2541

 Fermi energy:         5.3568107106

 k-point     1 :       0.0000    0.0000    0.0000
  band No.  band energies     occupation
      1     -51.6356      2.00000
      2     -51.6182      2.00000
      3     -27.9487      2.00000
      4     -27.9487      2.00000
      5     -27.7797      2.00000
      6     -27.7797      2.00000
      7     -27.7403      2.00000
      8     -27.7053      2.00000
      9     -12.9524      2.00000
     10     -11.7728      2.00000
     11     -11.0325      2.00000
     12     -11.0325      2.00000
     13      -0.5206      2.00000
     14      -0.1095      2.00000
     15       0.3165      2.00000
     16       1.4458      2.00000
     17       1.4458      2.00000
     18       2.7133      2.00000
     19       2.7133      2.00000
     20       3.2776      2.00000
     21       4.5711      2.00000
     22       4.8250      2.00000
     23       4.8250      2.00000
     24       5.3059      2.00000
     25       7.1406      0.00000
     26       7.4221      0.00000
     27       7.6744      0.00000
     28       7.7815      0.00000

[...]

 k-point   180 :       0.5000    0.5000    0.5000
  band No.  band energies     occupation
      1     -51.5859      2.00000
      2     -51.5859      2.00000
      3     -28.1762      2.00000
      4     -28.1762      2.00000
      5     -27.8060      2.00000
      6     -27.8060      2.00000
      7     -27.7852      2.00000
      8     -27.7852      2.00000
      9     -11.6424      2.00000
     10     -11.6424      2.00000
     11     -11.3670      2.00000
     12     -11.3670      2.00000
     13       0.5183      2.00000
     14       0.5183      2.00000
     15       0.6801      2.00000
     16       0.6801      2.00000
     17       1.7203      2.00000
     18       1.7203      2.00000
     19       2.5255      2.00000
     20       2.5255      2.00000
     21       3.9798      2.00000
     22       3.9798      2.00000
     23       4.6209      2.00000
     24       4.6209      2.00000
     25       7.8999      0.00000
     26       7.8999      0.00000
     27       8.4933      0.00000
     28       8.4934      0.00000

 soft charge-density along one line, spin component           1
         0         1         2         3         4         5         6         7         8         9
 total charge-density along one line

------------------------ aborting loop because EDIFF is reached ----------------------------------------

  FORCE on cell =-STRESS in cart. coord.  units (eV):
  Direction    XX          YY          ZZ          XY          YZ          ZX
  Alpha Z   184.33841   184.33841   184.33841
  Ewald   -1386.37292 -1386.37292  -832.58596     0.00000     0.00000     0.00000
  Hartree   302.29695   302.29695   616.20158    -0.00000    -0.00000    -0.00000
  E(xc)    -246.74649  -246.74649  -246.06349     0.00000    -0.00000    -0.00000
  Local      80.87665    80.87665  -776.57189    -0.00000     0.00000    -0.00000
  n-local    21.35477    19.77074    15.93122    -0.35172    -0.00006     0.00006
  augment   292.80030   292.80030   293.02768    -0.00000    -0.00000     0.00000
  Kinetic   755.46128   758.39066   751.04100     0.06606     0.00000     0.00002
  Fock        0.00000     0.00000     0.00000     0.00000     0.00000     0.00000
  Total       4.68163     4.68163     5.31856    -0.00000     0.00000     0.00000
  in kB     120.88017   120.88017   137.32574    -0.00000     0.00000     0.00000

 VOLUME and BASIS-vectors are now :
  energy-cutoff  :      460.00
  volume of cell :       62.05
      direct lattice vectors                 reciprocal lattice vectors
     4.584000000  0.000000000  0.000000000     0.218150087  0.000000000  0.000000000
     0.000000000  4.584000000  0.000000000     0.000000000  0.218150087  0.000000000
     0.000000000  0.000000000  2.953000000     0.000000000  0.000000000  0.338638673

  length of vectors
     4.584000000  4.584000000  2.953000000     0.218150087  0.218150087  0.338638673

 FORCES acting on ions
    electron-ion (+dipol)            ewald-force                    non-local-force                 convergence-correction
   -.456E-13 -.457E-13 -.547E-13   0.853E-13 0.568E-13 0.110E-13   0.468E-24 -.144E-22 0.367E-22   0.608E-12 -.277E-11 0.113E-12
   0.249E-11 -.157E-11 -.197E-11   -.568E-13 0.000E+00 0.128E-13   0.988E-23 0.212E-23 0.615E-22   0.370E-11 0.405E-12 0.503E-12
   -.414E+02 0.414E+02 0.971E-12   0.454E+02 -.454E+02 -.972E-14   -.369E+01 0.369E+01 0.158E-21   -.218E+00 0.218E+00 -.134E-11
   0.414E+02 -.414E+02 -.418E-11   -.454E+02 0.454E+02 -.920E-14   0.369E+01 -.369E+01 0.161E-21   0.218E+00 -.218E+00 0.272E-11
   0.414E+02 0.414E+02 -.161E-05   -.454E+02 -.454E+02 -.805E-14   0.369E+01 0.369E+01 -.317E-21   0.218E+00 0.218E+00 -.424E-13
   -.414E+02 -.414E+02 0.161E-05   0.454E+02 0.454E+02 -.767E-14   -.369E+01 -.369E+01 -.275E-21   -.218E+00 -.218E+00 -.146E-11
   0.266E-11 -.178E-11 -.452E-11   -.711E-14 -.711E-14 -.108E-13   0.000E+00 0.000E+00 -.175E-21   0.420E-11 -.186E-12 0.495E-12

 POSITION                                       TOTAL-FORCE (eV/Angst)
      0.00000      0.00000      0.00000         0.000000      0.000000      0.000000
      2.29200      2.29200      1.47650        -0.000000     -0.000000      0.000000
      0.89942      3.68458      1.47650         0.157228     -0.157228     -0.000000
      3.68458      0.89942      1.47650        -0.157228      0.157228      0.000000
      1.39258      1.39258      0.00000        -0.157228     -0.157228     -0.000000
      3.19142      3.19142      0.00000         0.157228      0.157228      0.000000
    total drift:                                0.000000     -0.000000     -0.000000

  FREE ENERGIE OF THE ION-ELECTRON SYSTEM (eV)
  free  energy   TOTEN  =       -53.17996210 eV

  energy  without entropy=      -53.17996210  energy(sigma->0) =      -53.17996210

 writing wavefunctions