 vasp.6.2.0 18Jan21 (build Oct 14 2021 17:49:53) complex

 executed on             LinuxIFC date 2022.04.02  12:21:36

 INCAR:
   SYSTEM = TiO2
   ISTART = 0
   ICHARGE = 2
   ISMEAR = 0
   SIGMA = 0.01
   LOUT = 10
   ENCUT = 500
   EDIFF = 0.1E-04
   EDIFFG = -0.01
   IBRION = 1
   ISIF = 0
   NSW = 15

 POTCAR:    PAW_PBE Ti_sv 26Sep2005
 POTCAR:   PAW_PBE O_s 07Sep2000
 POTCAR:    PAW_PBE Ti_sv 26Sep2005
   VRHFIN =Ti: 3p4s3d

   TITEL  = PAW_PBE Ti_sv 26Sep2005
   POMASS =   47.880; ZVAL   =   12.000    mass and valenz
   ENMAX  =  274.610; ENMIN  =  205.957 eV

   TITEL  = PAW_PBE O_s 07Sep2000
   POMASS =   16.000; ZVAL   =    6.000    mass and valenz
   ENMAX  =  282.853; ENMIN  =  212.140 eV

  PAW_PBE Ti_sv 26Sep2005               :
 PAW_PBE O_s 07Sep2000                  :

 POSCAR: Rutile TiO2
  positions in direct lattice
 exchange correlation table for  LEXCH =        8
   RHO(1)=    0.500       N(1)  =     2000
   RHO(2)=  100.500       N(2)  =     4000

 ion  position               nearest neighbor table
   1  0.000  0.000  0.000-   3 1.95   4 1.95   3 1.95   4 1.95   5 1.97   6 1.97
   2  0.500  0.500  0.500-   5 1.95   6 1.95   5 1.95   6 1.95   3 1.97   4 1.97
   3  0.195  0.805  0.500-   1 1.95   1 1.95   2 1.97
   4  0.805  0.195  0.500-   1 1.95   1 1.95   2 1.97
   5  0.305  0.305  0.000-   2 1.95   2 1.95   1 1.97
   6  0.695  0.695  0.000-   2 1.95   2 1.95   1 1.97

  LATTYP: Found a simple tetragonal cell.
 ALAT       =     4.5840000000
 C/A-ratio  =     0.6441972077

  Lattice vectors:

 A1 = (   4.5840000000,   0.0000000000,   0.0000000000)
 A2 = (   0.0000000000,   4.5840000000,   0.0000000000)
 A3 = (   0.0000000000,   0.0000000000,   2.9530000000)

Analysis of symmetry for initial positions (statically):
 Subroutine PRICEL returns:
 Original cell was already a primitive cell.

 Routine SETGRP: Setting up the symmetry group for a
 simple tetragonal supercell.

 Subroutine GETGRP returns: Found 16 space group operations
 (whereof  8 operations were pure point group operations)
 out of a pool of 16 trial point group operations.

The static configuration has the point symmetry D_2h.
 The point group associated with its full space group is D_4h.

Analysis of symmetry for dynamics (positions and initial velocities):
 Subroutine PRICEL returns:
 Original cell was already a primitive cell.

 Routine SETGRP: Setting up the symmetry group for a
 simple tetragonal supercell.

 Subroutine GETGRP returns: Found 16 space group operations
 (whereof  8 operations were pure point group operations)
 out of a pool of 16 trial point group operations.

The dynamic configuration has the point symmetry D_2h.
 The point group associated with its full space group is D_4h.

 Subroutine INISYM returns: Found 16 space group operations
 (whereof  8 operations are pure point group operations),
 and found     1 'primitive' translations

                                     Primitive cell

  volume of cell :      62.0516

  direct lattice vectors                    reciprocal lattice vectors
     4.584000000  0.000000000  0.000000000     0.218150087  0.000000000  0.000000000
     0.000000000  4.584000000  0.000000000     0.000000000  0.218150087  0.000000000
     0.000000000  0.000000000  2.953000000     0.000000000  0.000000000  0.338638673

  length of vectors
     4.584000000  4.584000000  2.953000000     0.218150087  0.218150087  0.338638673

  position of ions in fractional coordinates (direct lattice)
     0.000000000  0.000000000  0.000000000
     0.500000000  0.500000000  0.500000000
     0.195420000  0.804580000  0.500000000
     0.804580000  0.195420000  0.500000000
     0.304580000  0.304580000  0.000000000
     0.695420000  0.695420000  0.000000000

  ion indices of the primitive-cell ions
   primitive index   ion index
                 1           1
                 2           2
                 3           3
                 4           4
                 5           5
                 6           6

 KPOINTS: Automatic KPOINTS generation

Automatic generation of k-mesh.
 Grid dimensions read from file:
 generate k-points for:    6    6    6

 Generating k-lattice:

  Cartesian coordinates                     Fractional coordinates (reciprocal lattice)
     0.036358348  0.000000000  0.000000000     0.166666667  0.000000000  0.000000000
     0.000000000  0.036358348  0.000000000     0.000000000  0.166666667  0.000000000
     0.000000000  0.000000000  0.056439779     0.000000000  0.000000000  0.166666667

  Length of vectors
     0.036358348  0.036358348  0.056439779

  Shift w.r.t. Gamma in fractional coordinates (k-lattice)
     0.000000000  0.000000000  0.000000000

 Subroutine IBZKPT returns following result:

 Found     40 irreducible k-points:

 Following reciprocal coordinates:
            Coordinates               Weight
  0.000000  0.000000  0.000000      1.000000
  0.166667  0.000000  0.000000      4.000000
  0.333333  0.000000  0.000000      4.000000
  0.500000  0.000000  0.000000      2.000000
  0.166667  0.166667  0.000000      4.000000
  0.333333  0.166667  0.000000      8.000000
  0.500000  0.166667  0.000000      4.000000
  0.333333  0.333333  0.000000      4.000000
  0.500000  0.333333  0.000000      4.000000
  0.500000  0.500000  0.000000      1.000000
  0.000000  0.000000  0.166667      2.000000
  0.166667  0.000000  0.166667      8.000000
  0.333333  0.000000  0.166667      8.000000
  0.500000  0.000000  0.166667      4.000000
  0.166667  0.166667  0.166667      8.000000
  0.333333  0.166667  0.166667     16.000000
  0.500000  0.166667  0.166667      8.000000
  0.333333  0.333333  0.166667      8.000000
  0.500000  0.333333  0.166667      8.000000
  0.500000  0.500000  0.166667      2.000000
  0.000000  0.000000  0.333333      2.000000
  0.166667  0.000000  0.333333      8.000000
  0.333333  0.000000  0.333333      8.000000
  0.500000  0.000000  0.333333      4.000000
  0.166667  0.166667  0.333333      8.000000
  0.333333  0.166667  0.333333     16.000000
  0.500000  0.166667  0.333333      8.000000
  0.333333  0.333333  0.333333      8.000000
  0.500000  0.333333  0.333333      8.000000
  0.500000  0.500000  0.333333      2.000000
  0.000000  0.000000  0.500000      1.000000
  0.166667  0.000000  0.500000      4.000000
  0.333333  0.000000  0.500000      4.000000
  0.500000  0.000000  0.500000      2.000000
  0.166667  0.166667  0.500000      4.000000
  0.333333  0.166667  0.500000      8.000000
  0.500000  0.166667  0.500000      4.000000
  0.333333  0.333333  0.500000      4.000000
  0.500000  0.333333  0.500000      4.000000
  0.500000  0.500000  0.500000      1.000000

 Following cartesian coordinates:
            Coordinates               Weight
  0.000000  0.000000  0.000000      1.000000
  0.036358  0.000000  0.000000      4.000000
  0.072717  0.000000  0.000000      4.000000
  0.109075  0.000000  0.000000      2.000000
  0.036358  0.036358  0.000000      4.000000
  0.072717  0.036358  0.000000      8.000000
  0.109075  0.036358  0.000000      4.000000
  0.072717  0.072717  0.000000      4.000000
  0.109075  0.072717  0.000000      4.000000
  0.109075  0.109075  0.000000      1.000000
  0.000000  0.000000  0.056440      2.000000
  0.036358  0.000000  0.056440      8.000000
  0.072717  0.000000  0.056440      8.000000
  0.109075  0.000000  0.056440      4.000000
  0.036358  0.036358  0.056440      8.000000
  0.072717  0.036358  0.056440     16.000000
  0.109075  0.036358  0.056440      8.000000
  0.072717  0.072717  0.056440      8.000000
  0.109075  0.072717  0.056440      8.000000
  0.109075  0.109075  0.056440      2.000000
  0.000000  0.000000  0.112880      2.000000
  0.036358  0.000000  0.112880      8.000000
  0.072717  0.000000  0.112880      8.000000
  0.109075  0.000000  0.112880      4.000000
  0.036358  0.036358  0.112880      8.000000
  0.072717  0.036358  0.112880     16.000000
  0.109075  0.036358  0.112880      8.000000
  0.072717  0.072717  0.112880      8.000000
  0.109075  0.072717  0.112880      8.000000
  0.109075  0.109075  0.112880      2.000000
  0.000000  0.000000  0.169319      1.000000
  0.036358  0.000000  0.169319      4.000000
  0.072717  0.000000  0.169319      4.000000
  0.109075  0.000000  0.169319      2.000000
  0.036358  0.036358  0.169319      4.000000
  0.072717  0.036358  0.169319      8.000000
  0.109075  0.036358  0.169319      4.000000
  0.072717  0.072717  0.169319      4.000000
  0.109075  0.072717  0.169319      4.000000
  0.109075  0.109075  0.169319      1.000000

 SYSTEM =  TiO2
 POSCAR =  Rutile TiO2

 Startparameter for this run:
   NWRITE =      2    write-flag & timer
   PREC   = normal    normal or accurate (medium, high low for compatibility)
   ISTART =      0    job   : 0-new  1-cont  2-samecut
   ICHARG =      2    charge: 1-file 2-atom 10-const
   ISPIN  =      1    spin polarized calculation?
   LNONCOLLINEAR =      F non collinear calculations
   LSORBIT =      F    spin-orbit coupling
   INIWAV =      1    electr: 0-lowe 1-rand  2-diag
   LASPH  =      F    aspherical Exc in radial PAW
   METAGGA=      F    non-selfconsistent MetaGGA calc.

 Electronic Relaxation 1
   ENCUT  =  500.0 eV  36.75 Ry    6.06 a.u.   8.36  8.36  5.38*2*pi/ulx,y,z
   ENINI  =  500.0     initial cutoff
   ENAUG  =  482.8 eV  augmentation charge cutoff
   NELM   =     60;   NELMIN=  2; NELMDL= -5     # of ELM steps
   EDIFF  = 0.1E-04   stopping-criterion for ELM
   LREAL  =      F    real-space projection
   NLSPLINE    = F    spline interpolate recip. space projectors
   LCOMPAT=      F    compatible to vasp.4.4
   GGA_COMPAT  = T    GGA compatible to vasp.4.4-vasp.4.6
   LMAXPAW     = -100 max onsite density
   LMAXMIX     =    2 max onsite mixed and CHGCAR
   VOSKOWN=      0    Vosko Wilk Nusair interpolation
   ROPT   =    0.00000   0.00000
 Ionic relaxation
   EDIFFG = -.1E-01   stopping-criterion for IOM
   NSW    =     15    number of steps for IOM
   NBLOCK =      1;   KBLOCK =     15    inner block; outer block
   IBRION =      1    ionic relax: 0-MD 1-quasi-New 2-CG
   NFREE  =      0    steps in history (QN), initial steepest desc. (CG)
   ISIF   =      0    stress and relaxation
   IWAVPR =     11    prediction:  0-non 1-charg 2-wave 3-comb
   ISYM   =      2    0-nonsym 1-usesym 2-fastsym
   LCORR  =      T    Harris-Foulkes like correction to forces

   POTIM  = 0.5000    time-step for ionic-motion
   TEIN   =    0.0    initial temperature
   TEBEG  =    0.0;   TEEND  =   0.0 temperature during run
   SMASS  =  -3.00    Nose mass-parameter (am)
   estimated Nose-frequenzy (Omega)   =  0.10E-29 period in steps = 0.13E+47 mass=  -0.480E-27a.u.
   SCALEE = 1.0000    scale energy and forces
   NPACO  =    256;   APACO  = 16.0  distance and # of slots for P.C.
   PSTRESS=    0.0 pullay stress

  Mass of Ions in am
   POMASS =  47.88 16.00
  Ionic Valenz
   ZVAL   =  12.00  6.00
  Atomic Wigner-Seitz radii
  virtual crystal weights
   VCA    =   1.00  1.00
   NELECT =      48.0000    total number of electrons
   NUPDOWN=      -1.0000    fix difference up-down

 DOS related values:
   EMIN   =  10.00;   EMAX   =-10.00  energy-range for DOS
   EFERMI =   0.00
[...]
   0.50000000  0.16666667  0.16666667       0.037
   0.33333333  0.33333333  0.16666667       0.037
   0.50000000  0.33333333  0.16666667       0.037
   0.50000000  0.50000000  0.16666667       0.009
   0.00000000  0.00000000  0.33333333       0.009
   0.16666667  0.00000000  0.33333333       0.037
   0.33333333  0.00000000  0.33333333       0.037
   0.50000000  0.00000000  0.33333333       0.019
   0.16666667  0.16666667  0.33333333       0.037
   0.33333333  0.16666667  0.33333333       0.074
   0.50000000  0.16666667  0.33333333       0.037
   0.33333333  0.33333333  0.33333333       0.037
   0.50000000  0.33333333  0.33333333       0.037
   0.50000000  0.50000000  0.33333333       0.009
   0.00000000  0.00000000  0.50000000       0.005
   0.16666667  0.00000000  0.50000000       0.019
   0.33333333  0.00000000  0.50000000       0.019
   0.50000000  0.00000000  0.50000000       0.009
   0.16666667  0.16666667  0.50000000       0.019
   0.33333333  0.16666667  0.50000000       0.037
   0.50000000  0.16666667  0.50000000       0.019
   0.33333333  0.33333333  0.50000000       0.019
   0.50000000  0.33333333  0.50000000       0.019
   0.50000000  0.50000000  0.50000000       0.005

 position of ions in fractional coordinates (direct lattice)
   0.00000000  0.00000000  0.00000000
   0.50000000  0.50000000  0.50000000
   0.19542000  0.80458000  0.50000000
   0.80458000  0.19542000  0.50000000
   0.30458000  0.30458000  0.00000000
   0.69542000  0.69542000  0.00000000

 position of ions in cartesian coordinates  (Angst):
   0.00000000  0.00000000  0.00000000
   2.29200000  2.29200000  1.47650000
   0.89580528  3.68819472  1.47650000
   3.68819472  0.89580528  1.47650000
   1.39619472  1.39619472  0.00000000
   3.18780528  3.18780528  0.00000000

 k-point   1 :   0.0000 0.0000 0.0000  plane waves:    1559
 k-point   2 :   0.1667 0.0000 0.0000  plane waves:    1577
 k-point   3 :   0.3333 0.0000 0.0000  plane waves:    1585
 k-point   4 :   0.5000 0.0000 0.0000  plane waves:    1596
 k-point   5 :   0.1667 0.1667 0.0000  plane waves:    1574
 k-point   6 :   0.3333 0.1667 0.0000  plane waves:    1584
 k-point   7 :   0.5000 0.1667 0.0000  plane waves:    1592
 k-point   8 :   0.3333 0.3333 0.0000  plane waves:    1582
 k-point   9 :   0.5000 0.3333 0.0000  plane waves:    1584
 k-point  10 :   0.5000 0.5000 0.0000  plane waves:    1560
 k-point  11 :   0.0000 0.0000 0.1667  plane waves:    1603
 k-point  12 :   0.1667 0.0000 0.1667  plane waves:    1573
 k-point  13 :   0.3333 0.0000 0.1667  plane waves:    1583
 k-point  14 :   0.5000 0.0000 0.1667  plane waves:    1586
 k-point  15 :   0.1667 0.1667 0.1667  plane waves:    1579
 k-point  16 :   0.3333 0.1667 0.1667  plane waves:    1574
 k-point  17 :   0.5000 0.1667 0.1667  plane waves:    1580
 k-point  18 :   0.3333 0.3333 0.1667  plane waves:    1574
 k-point  19 :   0.5000 0.3333 0.1667  plane waves:    1580
 k-point  20 :   0.5000 0.5000 0.1667  plane waves:    1584
 k-point  21 :   0.0000 0.0000 0.3333  plane waves:    1583
 k-point  22 :   0.1667 0.0000 0.3333  plane waves:    1586
 k-point  23 :   0.3333 0.0000 0.3333  plane waves:    1569
 k-point  24 :   0.5000 0.0000 0.3333  plane waves:    1576
 k-point  25 :   0.1667 0.1667 0.3333  plane waves:    1573
 k-point  26 :   0.3333 0.1667 0.3333  plane waves:    1571
 k-point  27 :   0.5000 0.1667 0.3333  plane waves:    1562
 k-point  28 :   0.3333 0.3333 0.3333  plane waves:    1567
 k-point  29 :   0.5000 0.3333 0.3333  plane waves:    1568
 k-point  30 :   0.5000 0.5000 0.3333  plane waves:    1588
 k-point  31 :   0.0000 0.0000 0.5000  plane waves:    1586
 k-point  32 :   0.1667 0.0000 0.5000  plane waves:    1584
 k-point  33 :   0.3333 0.0000 0.5000  plane waves:    1566
 k-point  34 :   0.5000 0.0000 0.5000  plane waves:    1544
 k-point  35 :   0.1667 0.1667 0.5000  plane waves:    1576
 k-point  36 :   0.3333 0.1667 0.5000  plane waves:    1572
 k-point  37 :   0.5000 0.1667 0.5000  plane waves:    1588
 k-point  38 :   0.3333 0.3333 0.5000  plane waves:    1562
 k-point  39 :   0.5000 0.3333 0.5000  plane waves:    1552
 k-point  40 :   0.5000 0.5000 0.5000  plane waves:    1568

 maximum and minimum number of plane-waves per node :      1603     1544

 maximum number of plane-waves:      1603
 maximum index in each direction:
   IXMAX=    8   IYMAX=    8   IZMAX=    5
   IXMIN=   -8   IYMIN=   -8   IZMIN=   -5

 serial   3D FFT for wavefunctions
 parallel 3D FFT for charge:
    minimum data exchange during FFTs selected (reduces bandwidth)

 Broyden mixing: mesh for mixing (old mesh)
   NGX = 17   NGY = 17   NGZ = 11
  (NGX  = 56   NGY  = 56   NGZ  = 32)
  gives a total of   3179 points

 initial charge density was supplied:
 charge density of overlapping atoms calculated
 number of electron      48.0000000 magnetization
 keeping initial charge density in first step

 Maximum index for augmentation-charges         7591 (set IRDMAX)

 First call to EWALD:  gamma=   0.448
 Maximum number of real-space cells 2x 2x 4
 Maximum number of reciprocal cells 3x 3x 2

--------------------------------------- Iteration      1(   1)  ---------------------------------------

 eigenvalue-minimisations  :  2240
 total energy-change (2. order) : 0.6358998E+03  (-0.2445988E+04)
 number of electron      48.0000000 magnetization
 augmentation part       48.0000000 magnetization

 Free energy of the ion-electron system (eV)
  alpha Z        PSCENC =       184.33841299
  Ewald energy   TEWEN  =     -3603.98661611
  -Hartree energ DENC   =     -1243.30134872
  -exchange      EXHF   =         0.00000000
  -V(xc)+E(xc)   XCENC  =       234.93629837
  PAW double counting   =      3905.77317989    -3883.35318710
  entropy T*S    EENTRO =        -0.00028074
  eigenvalues    EBANDS =       135.83505296
  atomic energy  EATOM  =      4905.65827411
  Solvation  Ediel_sol  =         0.00000000
  free energy    TOTEN  =       635.89978565 eV

  energy without entropy =      635.90006639  energy(sigma->0) =      635.89992602

[...]

 eigenvalue-minimisations  :  2548
 total energy-change (2. order) :-0.6400344E+03  (-0.6199554E+03)
 number of electron      48.0000000 magnetization
 augmentation part       48.0000000 magnetization

[...]

 Broyden mixing:
  rms(total) = 0.34317E+01    rms(broyden)= 0.34317E+01
  rms(prec ) = 0.59332E+01
  weight for this iteration     100.00

[...]

 eigenvalues of (default mixing * dielectric matrix)
  average eigenvalue GAMMA=   0.3658
  0.3658

[...]

 average (electrostatic) potential at core
  the test charge radii are     1.0397  0.8742
  (the norm of the test charge is              1.0000)
       1 -75.7636       2 -75.7636       3 -78.9119       4 -78.9119       5 -78.9119
       6 -78.9119

 E-fermi :   5.3614     XC(G=0): -11.4510     alpha+bet :-14.2541

 Fermi energy:         5.3614418506

 k-point     1 :       0.0000    0.0000    0.0000
  band No.  band energies     occupation
      1     -51.6321      2.00000
      2     -51.6143      2.00000
      3     -27.9451      2.00000
      4     -27.9451      2.00000
      5     -27.7750      2.00000
      6     -27.7750      2.00000
      7     -27.7350      2.00000
      8     -27.7001      2.00000
      9     -12.9573      2.00000
     10     -11.7812      2.00000
     11     -11.0289      2.00000
     12     -11.0289      2.00000
     13      -0.5276      2.00000
     14      -0.1149      2.00000
     15       0.3222      2.00000
     16       1.4256      2.00000
     17       1.4256      2.00000
     18       2.7111      2.00000
     19       2.7111      2.00000
     20       3.2787      2.00000
     21       4.5672      2.00000
     22       4.8257      2.00000
     23       4.8257      2.00000
     24       5.2890      2.00000
     25       7.1474      0.00000
     26       7.4483      0.00000
     27       7.6835      0.00000
     28       7.7797      0.00000

[...]

 soft charge-density along one line, spin component           1
         0         1         2         3         4         5         6         7         8         9
 total charge-density along one line

------------------------ aborting loop because EDIFF is reached ----------------------------------------

 VOLUME and BASIS-vectors are now :
  energy-cutoff  :      500.00
  volume of cell :       62.05
      direct lattice vectors                 reciprocal lattice vectors
     4.584000000  0.000000000  0.000000000     0.218150087  0.000000000  0.000000000
     0.000000000  4.584000000  0.000000000     0.000000000  0.218150087  0.000000000
     0.000000000  0.000000000  2.953000000     0.000000000  0.000000000  0.338638673

[...]

 FORCES acting on ions
    electron-ion (+dipol)            ewald-force                    non-local-force                 convergence-correction
   -.330E-14 0.251E-13 -.656E-13   -.142E-12 -.284E-13 0.620E-15   -.892E-23 0.307E-22 0.177E-21   -.146E-12 -.648E-13 -.227E-13
   0.111E-11 0.408E-11 0.298E-11   -.227E-12 -.284E-12 0.257E-14   0.366E-22 -.213E-23 0.119E-21   -.935E-13 0.147E-13 -.117E-13
   -.434E+02 0.434E+02 0.169E-11   0.473E+02 -.473E+02 -.413E-14   -.383E+01 0.383E+01 0.523E-18   0.822E-03 -.822E-03 0.508E-14
   0.434E+02 -.434E+02 0.442E-11   -.473E+02 0.473E+02 -.411E-14   0.383E+01 -.383E+01 0.605E-17   -.822E-03 0.822E-03 0.111E-13
   0.434E+02 0.434E+02 0.898E-06   -.473E+02 -.473E+02 -.286E-14   0.383E+01 0.383E+01 0.342E-17   -.822E-03 -.822E-03 0.740E-14
   -.434E+02 -.434E+02 -.898E-06   0.473E+02 0.473E+02 -.293E-14   -.383E+01 -.383E+01 0.384E-17   0.822E-03 0.822E-03 0.478E-14
   0.881E-12 0.889E-11 0.854E-11   0.000E+00 0.711E-14 -.108E-13   0.444E-15 0.000E+00 0.138E-16   -.167E-12 -.131E-13 -.607E-14

 POSITION                                       TOTAL-FORCE (eV/Angst)
      0.00000      0.00000      0.00000         0.000000     -0.000000      0.000000
      2.29200      2.29200      1.47650        -0.000000     -0.000000      0.000000
      0.89581      3.68819      1.47650         0.077618     -0.077618     -0.000000
      3.68819      0.89581      1.47650        -0.077618      0.077618     -0.000000
      1.39619      1.39619      0.00000        -0.077618     -0.077618     -0.000000
      3.18781      3.18781      0.00000         0.077618      0.077618     -0.000000
    total drift:                                0.000000      0.000000      0.000000

  FREE ENERGIE OF THE ION-ELECTRON SYSTEM (eV)
  free  energy   TOTEN  =       -53.61380281 eV

  energy  without entropy=      -53.61380281  energy(sigma->0) =      -53.61380281

 Quasi-Newton relaxation of ions (Broydens 2nd method)
  g(Force)  = 0.233E-02   g(Stress)= 0.000E+00

 Reset! Starting new Quasi-Newton update for ions

[...]

 eigenvalue-minimisations  :  2420
 total energy-change (2. order) : 0.5900893E-04  (-0.2123058E-04)
 number of electron      47.9999978 magnetization
 augmentation part       12.0930878 magnetization

 Broyden mixing:
  rms(total) = 0.30676E-02    rms(broyden)= 0.30676E-02
  rms(prec ) = 0.37132E-02
  weight for this iteration     100.00

 eigenvalues of (default mixing * dielectric matrix)
  average eigenvalue GAMMA=   1.2895
  2.3983  0.9953  0.4750

[...]

--------------------------------------- Iteration      2(   5)  ---------------------------------------

 eigenvalue-minimisations  :  2064
 total energy-change (2. order) :-0.1851397E-05  (-0.4847337E-05)
 number of electron      47.9999978 magnetization
 augmentation part       12.0930878 magnetization

 Free energy of the ion-electron system (eV)
  alpha Z        PSCENC =       184.33841299
  Ewald energy   TEWEN  =     -3605.37491913
  -Hartree energ DENC   =     -1224.20691108
  -exchange      EXHF   =         0.00000000
  -V(xc)+E(xc)   XCENC  =       236.19300543
  PAW double counting   =      7159.23990791    -7131.83396425
  entropy T*S    EENTRO =        -0.00000000
  eigenvalues    EBANDS =      -577.62872807
  atomic energy  EATOM  =      4905.65827411
  Solvation  Ediel_sol  =         0.00000000
  free energy    TOTEN  =       -53.61492209 eV

  energy without entropy =      -53.61492209  energy(sigma->0) =      -53.61492209

 average (electrostatic) potential at core
  the test charge radii are     1.0397  0.8742
  (the norm of the test charge is              1.0000)
       1 -75.7708       2 -75.7708       3 -78.9117       4 -78.9117       5 -78.9117
       6 -78.9117

 E-fermi :   5.3484     XC(G=0): -11.4527     alpha+bet :-14.2541

 Fermi energy:         5.3483569354

[...]

 k-point    40 :       0.5000    0.5000    0.5000
  band No.  band energies     occupation
      1     -51.5883      2.00000
      2     -51.5883      2.00000
      3     -28.1775      2.00000
      4     -28.1775      2.00000
      5     -27.8072      2.00000
      6     -27.8072      2.00000
      7     -27.7867      2.00000
      8     -27.7867      2.00000
      9     -11.6421      2.00000
     10     -11.6421      2.00000
     11     -11.3675      2.00000
     12     -11.3675      2.00000
     13       0.5166      2.00000
     14       0.5166      2.00000
     15       0.6787      2.00000
     16       0.6787      2.00000
     17       1.7214      2.00000
     18       1.7214      2.00000
     19       2.5265      2.00000
     20       2.5265      2.00000
     21       3.9779      2.00000
     22       3.9779      2.00000
     23       4.6199      2.00000
     24       4.6199      2.00000
     25       7.8933      0.00000
     26       7.8933      0.00000
     27       8.4848      0.00000
     28       8.4857      0.00000

 soft charge-density along one line, spin component           1
         0         1         2         3         4         5         6         7         8         9
 total charge-density along one line

------------------------ aborting loop because EDIFF is reached ----------------------------------------

 VOLUME and BASIS-vectors are now :
  energy-cutoff  :      500.00
  volume of cell :       62.05
      direct lattice vectors                 reciprocal lattice vectors
     4.584000000  0.000000000  0.000000000     0.218150087  0.000000000  0.000000000
     0.000000000  4.584000000  0.000000000     0.000000000  0.218150087  0.000000000
     0.000000000  0.000000000  2.953000000     0.000000000  0.000000000  0.338638673

  length of vectors
     4.584000000  4.584000000  2.953000000     0.218150087  0.218150087  0.338638673

 FORCES acting on ions
    electron-ion (+dipol)            ewald-force                    non-local-force                 convergence-correction
   -.300E-13 -.519E-13 -.709E-13   0.142E-12 0.142E-12 0.108E-13   -.291E-23 -.255E-23 0.209E-23   -.360E-12 -.155E-12 -.155E-12
   0.117E-11 0.414E-11 0.300E-11   0.284E-13 -.114E-12 0.130E-13   0.778E-24 -.246E-23 0.153E-23   -.392E-12 -.964E-15 0.204E-12
   -.416E+02 0.416E+02 -.226E-12   0.454E+02 -.454E+02 -.869E-14   -.383E+01 0.383E+01 -.106E-18   0.125E-01 -.125E-01 0.522E-13
   0.416E+02 -.416E+02 -.617E-11   -.454E+02 0.454E+02 -.884E-14   0.383E+01 -.383E+01 -.236E-18   -.125E-01 0.125E-01 0.333E-12
   0.416E+02 0.416E+02 0.175E-06   -.454E+02 -.454E+02 -.855E-14   0.383E+01 0.383E+01 0.124E-17   -.125E-01 -.125E-01 -.845E-13
   -.416E+02 -.416E+02 -.175E-06   0.454E+02 0.454E+02 -.856E-14   -.383E+01 -.383E+01 0.147E-17   0.125E-01 0.125E-01 -.162E-12
   0.604E-11 0.650E-11 0.298E-11   -.711E-14 -.142E-13 -.108E-13   0.000E+00 0.444E-15 0.237E-17   -.758E-12 0.224E-13 0.187E-12

 POSITION                                       TOTAL-FORCE (eV/Angst)
      0.00000     -0.00000      0.00000         0.000000     -0.000000      0.000000
      2.29200      2.29200      1.47650        -0.000000     -0.000000      0.000000
      0.89955      3.68445      1.47650        -0.003273      0.003273     -0.000000
      3.68445      0.89955      1.47650         0.003273     -0.003273      0.000000
      1.39245      1.39245     -0.00000         0.003273      0.003273     -0.000000
      3.19155      3.19155     -0.00000        -0.003273     -0.003273      0.000000
    total drift:                                0.000000      0.000000      0.000000

  FREE ENERGIE OF THE ION-ELECTRON SYSTEM (eV)
  free  energy   TOTEN  =       -53.61492209 eV

  energy  without entropy=      -53.61492209  energy(sigma->0) =      -53.61492209

 d Force = 0.1113532E-02[-0.981E-04, 0.233E-02]  d Energy = 0.1119283E-02-0.575E-05
 d Force = 0.1388294E+01[ 0.136E+01, 0.142E+01]  d Ewald  = 0.1388303E+01-0.893E-05

 Quasi-Newton relaxation of ions (Broydens 2nd method)
  g(Force)  = 0.414E-05   g(Stress)= 0.000E+00

 retain information from N=  1 steps
 eigenvalues of (default step * inverse Hessian matrix)
  average eigenvalue of G=   0.9595
 eigenvalue spectrum of G is  0.9595

 reached required accuracy - stopping structural energy minimisation
 writing wavefunctions