 vasp.6.2.0 18Jan21 (build Oct 14 2021 17:49:53) complex

 executed on             LinuxIFC date 2022.04.02  12:32:02

 INCAR:
   SYSTEM = TiO2
   ISTART = 1
   ICHARG = 11
   ISMEAR = 0
   SIGMA = 0.01
   LOUT = 10
   ENCUT = 500
   EDIFF = 0.1E-04
   LDAU = .TRUE.
   LDAUTYPE = 2
   LDAUL = 2 -1
   LDAUU = 3.90 0.00
   LDAUJ = 0.00 0.00
   LDAUPRINT = 2
   LMAXMIX = 4

 POTCAR:    PAW_PBE Ti_sv 26Sep2005
 POTCAR:   PAW_PBE O_s 07Sep2000
 POTCAR:    PAW_PBE Ti_sv 26Sep2005
   VRHFIN =Ti: 3p4s3d

   TITEL  = PAW_PBE Ti_sv 26Sep2005
   POMASS =   47.880; ZVAL   =   12.000    mass and valenz
   ENMAX  =  274.610; ENMIN  =  205.957 eV

   TITEL  = PAW_PBE O_s 07Sep2000
   POMASS =   16.000; ZVAL   =    6.000    mass and valenz
   ENMAX  =  282.853; ENMIN  =  212.140 eV

  PAW_PBE Ti_sv 26Sep2005               :
 PAW_PBE O_s 07Sep2000                  :

 POSCAR: Rutile TiO2
  positions in direct lattice
  velocities in cartesian coordinates
 exchange correlation table for  LEXCH =        8
   RHO(1)=    0.500       N(1)  =     2000
   RHO(2)=  100.500       N(2)  =     4000

 ion  position               nearest neighbor table
   1  0.000  0.000  0.000-   3 1.95   4 1.95   3 1.95   4 1.95   5 1.97   6 1.97
   2  0.500  0.500  0.500-   5 1.95   6 1.95   5 1.95   6 1.95   3 1.97   4 1.97
   3  0.196  0.804  0.500-   1 1.95   1 1.95   2 1.97
   4  0.804  0.196  0.500-   1 1.95   1 1.95   2 1.97
   5  0.304  0.304  0.000-   2 1.95   2 1.95   1 1.97
   6  0.696  0.696  0.000-   2 1.95   2 1.95   1 1.97

  LATTYP: Found a simple tetragonal cell.
 ALAT       =     4.5840000000
 C/A-ratio  =     0.6441972077

  Lattice vectors:

 A1 = (   4.5840000000,   0.0000000000,   0.0000000000)
 A2 = (   0.0000000000,   4.5840000000,   0.0000000000)
 A3 = (   0.0000000000,   0.0000000000,   2.9530000000)

Analysis of symmetry for initial positions (statically):
 Subroutine PRICEL returns:
 Original cell was already a primitive cell.

 Routine SETGRP: Setting up the symmetry group for a
 simple tetragonal supercell.

 Subroutine GETGRP returns: Found 16 space group operations
 (whereof  8 operations were pure point group operations)
 out of a pool of 16 trial point group operations.

The static configuration has the point symmetry D_2h.
 The point group associated with its full space group is D_4h.

Analysis of symmetry for dynamics (positions and initial velocities):
 Subroutine PRICEL returns:
 Original cell was already a primitive cell.

 Routine SETGRP: Setting up the symmetry group for a
 simple tetragonal supercell.

 Subroutine GETGRP returns: Found 16 space group operations
 (whereof  8 operations were pure point group operations)
 out of a pool of 16 trial point group operations.

The dynamic configuration has the point symmetry D_2h.
 The point group associated with its full space group is D_4h.

 Subroutine INISYM returns: Found 16 space group operations
 (whereof  8 operations are pure point group operations),
 and found     1 'primitive' translations

                                     Primitive cell

  volume of cell :      62.0516

  direct lattice vectors                    reciprocal lattice vectors
     4.584000000  0.000000000  0.000000000     0.218150087  0.000000000  0.000000000
     0.000000000  4.584000000  0.000000000     0.000000000  0.218150087  0.000000000
     0.000000000  0.000000000  2.953000000     0.000000000  0.000000000  0.338638673

  length of vectors
     4.584000000  4.584000000  2.953000000     0.218150087  0.218150087  0.338638673

  position of ions in fractional coordinates (direct lattice)
     0.000000000  0.000000000  0.000000000
     0.500000000  0.500000000  0.500000000
     0.196209329  0.803790671  0.500000000
     0.803790671  0.196209329  0.500000000
     0.303790671  0.303790671  0.000000000
     0.696209329  0.696209329  0.000000000

  ion indices of the primitive-cell ions
   primitive index   ion index
                 1           1
                 2           2
                 3           3
                 4           4
                 5           5
                 6           6

 KPOINTS: K-Path Generated by VASPKIT.

Interpolating k-points between supplied coordinates.

 Line segments in fractional coordinates (reciprocal lattice):
    0.000000  0.000000  0.500000  ...  0.500000  0.500000  0.500000
    0.500000  0.500000  0.500000  ...  0.500000  0.500000  0.000000
    0.500000  0.500000  0.000000  ...  0.000000  0.000000  0.000000
    0.000000  0.000000  0.000000  ...  0.000000  0.000000  0.500000
    0.000000  0.000000  0.500000  ...  0.000000  0.500000  0.500000
    0.000000  0.500000  0.500000  ...  0.000000  0.500000  0.000000
    0.000000  0.500000  0.000000  ...  0.000000  0.000000  0.000000

 Generated    20 points on each line segment, for a total of    140 k-points:

 Following reciprocal coordinates:
            Coordinates               Weight
  0.000000  0.000000  0.500000      0.007143
  0.026316  0.026316  0.500000      0.007143
  0.052632  0.052632  0.500000      0.007143
  0.078947  0.078947  0.500000      0.007143
  0.105263  0.105263  0.500000      0.007143
  0.131579  0.131579  0.500000      0.007143
  0.157895  0.157895  0.500000      0.007143
  0.184211  0.184211  0.500000      0.007143
  0.210526  0.210526  0.500000      0.007143
  0.236842  0.236842  0.500000      0.007143
  0.263158  0.263158  0.500000      0.007143
  0.289474  0.289474  0.500000      0.007143
  0.315789  0.315789  0.500000      0.007143
  0.342105  0.342105  0.500000      0.007143
  0.368421  0.368421  0.500000      0.007143
  0.394737  0.394737  0.500000      0.007143
  0.421053  0.421053  0.500000      0.007143
  0.447368  0.447368  0.500000      0.007143
  0.473684  0.473684  0.500000      0.007143
  0.500000  0.500000  0.500000      0.007143
  0.500000  0.500000  0.500000      0.007143
  0.500000  0.500000  0.473684      0.007143
  0.500000  0.500000  0.447368      0.007143
  0.500000  0.500000  0.421053      0.007143
  0.500000  0.500000  0.394737      0.007143
  0.500000  0.500000  0.368421      0.007143
  0.500000  0.500000  0.342105      0.007143
  0.500000  0.500000  0.315789      0.007143
  0.500000  0.500000  0.289474      0.007143
  0.500000  0.500000  0.263158      0.007143
  0.500000  0.500000  0.236842      0.007143
  0.500000  0.500000  0.210526      0.007143
  0.500000  0.500000  0.184211      0.007143
  0.500000  0.500000  0.157895      0.007143
  0.500000  0.500000  0.131579      0.007143
  0.500000  0.500000  0.105263      0.007143
  0.500000  0.500000  0.078947      0.007143
  0.500000  0.500000  0.052632      0.007143
  0.500000  0.500000  0.026316      0.007143
  0.500000  0.500000  0.000000      0.007143
  0.500000  0.500000  0.000000      0.007143
  0.473684  0.473684  0.000000      0.007143
  0.447368  0.447368  0.000000      0.007143
  0.421053  0.421053  0.000000      0.007143
  0.394737  0.394737  0.000000      0.007143
  0.368421  0.368421  0.000000      0.007143
  0.342105  0.342105  0.000000      0.007143
  0.315789  0.315789  0.000000      0.007143
  0.289474  0.289474  0.000000      0.007143
  0.263158  0.263158  0.000000      0.007143
  0.236842  0.236842  0.000000      0.007143
  0.210526  0.210526  0.000000      0.007143
  0.184211  0.184211  0.000000      0.007143
  0.157895  0.157895  0.000000      0.007143
  0.131579  0.131579  0.000000      0.007143
  0.105263  0.105263  0.000000      0.007143
  0.078947  0.078947  0.000000      0.007143
  0.052632  0.052632  0.000000      0.007143
  0.026316  0.026316  0.000000      0.007143
  0.000000  0.000000  0.000000      0.007143
[...]
  0.000000  0.368421  0.000000      0.007143
  0.000000  0.342105  0.000000      0.007143
  0.000000  0.315789  0.000000      0.007143
  0.000000  0.289474  0.000000      0.007143
  0.000000  0.263158  0.000000      0.007143
  0.000000  0.236842  0.000000      0.007143
  0.000000  0.210526  0.000000      0.007143
  0.000000  0.184211  0.000000      0.007143
  0.000000  0.157895  0.000000      0.007143
  0.000000  0.131579  0.000000      0.007143
  0.000000  0.105263  0.000000      0.007143
  0.000000  0.078947  0.000000      0.007143
  0.000000  0.052632  0.000000      0.007143
  0.000000  0.026316  0.000000      0.007143
  0.000000  0.000000  0.000000      0.007143

 Following cartesian coordinates:
            Coordinates               Weight
  0.000000  0.000000  0.169319      0.007143
  0.005741  0.005741  0.169319      0.007143
  0.011482  0.011482  0.169319      0.007143
  0.017222  0.017222  0.169319      0.007143
  0.022963  0.022963  0.169319      0.007143
  0.028704  0.028704  0.169319      0.007143
  0.034445  0.034445  0.169319      0.007143
  0.040186  0.040186  0.169319      0.007143
  0.045926  0.045926  0.169319      0.007143
  0.051667  0.051667  0.169319      0.007143
  0.057408  0.057408  0.169319      0.007143
  0.063149  0.063149  0.169319      0.007143
  0.068890  0.068890  0.169319      0.007143
  0.074630  0.074630  0.169319      0.007143
  0.080371  0.080371  0.169319      0.007143
  0.086112  0.086112  0.169319      0.007143
  0.091853  0.091853  0.169319      0.007143
  0.097593  0.097593  0.169319      0.007143
  0.103334  0.103334  0.169319      0.007143
  0.109075  0.109075  0.169319      0.007143
  0.109075  0.109075  0.169319      0.007143
  0.109075  0.109075  0.160408      0.007143
  0.109075  0.109075  0.151496      0.007143
  0.109075  0.109075  0.142585      0.007143
  0.109075  0.109075  0.133673      0.007143
  0.109075  0.109075  0.124762      0.007143
  0.109075  0.109075  0.115850      0.007143
  0.109075  0.109075  0.106939      0.007143
  0.109075  0.109075  0.098027      0.007143
  0.109075  0.109075  0.089115      0.007143
  0.109075  0.109075  0.080204      0.007143
  0.109075  0.109075  0.071292      0.007143
  0.109075  0.109075  0.062381      0.007143
  0.109075  0.109075  0.053469      0.007143
  0.109075  0.109075  0.044558      0.007143
  0.109075  0.109075  0.035646      0.007143
  0.109075  0.109075  0.026735      0.007143
  0.109075  0.109075  0.017823      0.007143
  0.109075  0.109075  0.008912      0.007143
  0.109075  0.109075  0.000000      0.007143
  0.109075  0.109075  0.000000      0.007143
  0.103334  0.103334  0.000000      0.007143
  0.097593  0.097593  0.000000      0.007143
  0.091853  0.091853  0.000000      0.007143
  0.086112  0.086112  0.000000      0.007143
  0.080371  0.080371  0.000000      0.007143
  0.074630  0.074630  0.000000      0.007143
  0.068890  0.068890  0.000000      0.007143
  0.063149  0.063149  0.000000      0.007143
  0.057408  0.057408  0.000000      0.007143
  0.051667  0.051667  0.000000      0.007143
  0.045926  0.045926  0.000000      0.007143
  0.040186  0.040186  0.000000      0.007143
  0.034445  0.034445  0.000000      0.007143
  0.028704  0.028704  0.000000      0.007143
  0.022963  0.022963  0.000000      0.007143
  0.017222  0.017222  0.000000      0.007143
  0.011482  0.011482  0.000000      0.007143
  0.005741  0.005741  0.000000      0.007143
  0.000000  0.000000  0.000000      0.007143
[...]
  0.000000  0.080371  0.000000      0.007143
  0.000000  0.074630  0.000000      0.007143
  0.000000  0.068890  0.000000      0.007143
[...]
 k-point  15 :   0.3684 0.3684 0.5000  plane waves:    1554
 k-point  16 :   0.3947 0.3947 0.5000  plane waves:    1538
 k-point  17 :   0.4211 0.4211 0.5000  plane waves:    1550
 k-point  18 :   0.4474 0.4474 0.5000  plane waves:    1558
 k-point  19 :   0.4737 0.4737 0.5000  plane waves:    1566
 k-point  20 :   0.5000 0.5000 0.5000  plane waves:    1568
 k-point  21 :   0.5000 0.5000 0.5000  plane waves:    1568
 k-point  22 :   0.5000 0.5000 0.4737  plane waves:    1556
 k-point  23 :   0.5000 0.5000 0.4474  plane waves:    1556
 k-point  24 :   0.5000 0.5000 0.4211  plane waves:    1564
 k-point  25 :   0.5000 0.5000 0.3947  plane waves:    1564
 k-point  26 :   0.5000 0.5000 0.3684  plane waves:    1572
 k-point  27 :   0.5000 0.5000 0.3421  plane waves:    1584
 k-point  28 :   0.5000 0.5000 0.3158  plane waves:    1588
 k-point  29 :   0.5000 0.5000 0.2895  plane waves:    1588
 k-point  30 :   0.5000 0.5000 0.2632  plane waves:    1588
 k-point  31 :   0.5000 0.5000 0.2368  plane waves:    1580
 k-point  32 :   0.5000 0.5000 0.2105  plane waves:    1580
 k-point  33 :   0.5000 0.5000 0.1842  plane waves:    1576
 k-point  34 :   0.5000 0.5000 0.1579  plane waves:    1576
 k-point  35 :   0.5000 0.5000 0.1316  plane waves:    1576
 k-point  36 :   0.5000 0.5000 0.1053  plane waves:    1572
 k-point  37 :   0.5000 0.5000 0.0789  plane waves:    1572
 k-point  38 :   0.5000 0.5000 0.0526  plane waves:    1556
 k-point  39 :   0.5000 0.5000 0.0263  plane waves:    1568
 k-point  40 :   0.5000 0.5000 0.0000  plane waves:    1560
 k-point  41 :   0.5000 0.5000 0.0000  plane waves:    1560
 k-point  42 :   0.4737 0.4737 0.0000  plane waves:    1566
 k-point  43 :   0.4474 0.4474 0.0000  plane waves:    1574
 k-point  44 :   0.4211 0.4211 0.0000  plane waves:    1568
 k-point  45 :   0.3947 0.3947 0.0000  plane waves:    1572
 k-point  46 :   0.3684 0.3684 0.0000  plane waves:    1582
 k-point  47 :   0.3421 0.3421 0.0000  plane waves:    1584
 k-point  48 :   0.3158 0.3158 0.0000  plane waves:    1584
 k-point  49 :   0.2895 0.2895 0.0000  plane waves:    1584
 k-point  50 :   0.2632 0.2632 0.0000  plane waves:    1576
 k-point  51 :   0.2368 0.2368 0.0000  plane waves:    1574
 k-point  52 :   0.2105 0.2105 0.0000  plane waves:    1572
 k-point  53 :   0.1842 0.1842 0.0000  plane waves:    1572
 k-point  54 :   0.1579 0.1579 0.0000  plane waves:    1578
 k-point  55 :   0.1316 0.1316 0.0000  plane waves:    1578
 k-point  56 :   0.1053 0.1053 0.0000  plane waves:    1582
 k-point  57 :   0.0789 0.0789 0.0000  plane waves:    1581
 k-point  58 :   0.0526 0.0526 0.0000  plane waves:    1577
 k-point  59 :   0.0263 0.0263 0.0000  plane waves:    1559
 k-point  60 :   0.0000 0.0000 0.0000  plane waves:    1559
[...]
 k-point 126 :   0.0000 0.3684 0.0000  plane waves:    1586
 k-point 127 :   0.0000 0.3421 0.0000  plane waves:    1583
 k-point 128 :   0.0000 0.3158 0.0000  plane waves:    1581
 k-point 129 :   0.0000 0.2895 0.0000  plane waves:    1581
 k-point 130 :   0.0000 0.2632 0.0000  plane waves:    1577
 k-point 131 :   0.0000 0.2368 0.0000  plane waves:    1579
 k-point 132 :   0.0000 0.2105 0.0000  plane waves:    1581
 k-point 133 :   0.0000 0.1842 0.0000  plane waves:    1575
 k-point 134 :   0.0000 0.1579 0.0000  plane waves:    1577
 k-point 135 :   0.0000 0.1316 0.0000  plane waves:    1577
 k-point 136 :   0.0000 0.1053 0.0000  plane waves:    1579
 k-point 137 :   0.0000 0.0789 0.0000  plane waves:    1573
 k-point 138 :   0.0000 0.0526 0.0000  plane waves:    1563
 k-point 139 :   0.0000 0.0263 0.0000  plane waves:    1559
 k-point 140 :   0.0000 0.0000 0.0000  plane waves:    1559

 maximum and minimum number of plane-waves per node :      1603     1538

 maximum number of plane-waves:      1603
 maximum index in each direction:
   IXMAX=    8   IYMAX=    8   IZMAX=    5
   IXMIN=   -8   IYMIN=   -8   IZMIN=   -5

 serial   3D FFT for wavefunctions
 parallel 3D FFT for charge:
    minimum data exchange during FFTs selected (reduces bandwidth)

 initial charge density was supplied:
 number of electron      47.9999979 magnetization
 keeping initial charge density in first step

 Maximum index for augmentation-charges         7591 (set IRDMAX)

 First call to EWALD:  gamma=   0.448
 Maximum number of real-space cells 2x 2x 4
 Maximum number of reciprocal cells 3x 3x 2

--------------------------------------- Iteration      1(   1)  ---------------------------------------

atom =   1  type =  1  l = 2

 onsite density matrix

spin component  1

  0.1986  0.0000 -0.0769  0.0000 -0.0000
  0.0000  0.1863  0.0000 -0.0864  0.0000
 -0.0769  0.0000  0.1324  0.0000  0.0000
  0.0000 -0.0864  0.0000  0.1863  0.0000
 -0.0000  0.0000  0.0000  0.0000  0.1020

[...]

 occupancies and eigenvectors

  o =  0.0818  v = -0.5498  0.0000 -0.8353  0.0000  0.0000  0.0000  0.0000  0.0000  0.0000  0.0000      0.0000  0.0000  0.0000  0.0000  0.0000  0.0000  0.0000  0.0000  0.0000  0.0000
  o =  0.0818  v =  0.0000  0.0000  0.0000  0.0000  0.0000 -0.5498  0.0000 -0.8353  0.0000  0.0000      0.0000  0.0000  0.0000  0.0000  0.0000  0.0000  0.0000  0.0000  0.0000  0.0000
  o =  0.0999  v =  0.0000 -0.7071  0.0000 -0.7071  0.0000  0.0000  0.0000  0.0000  0.0000  0.0000      0.0000  0.0000  0.0000  0.0000  0.0000  0.0000  0.0000  0.0000  0.0000  0.0000
  o =  0.0999  v =  0.0000  0.0000  0.0000  0.0000  0.0000  0.0000 -0.7071  0.0000 -0.7071  0.0000      0.0000  0.0000  0.0000  0.0000  0.0000  0.0000  0.0000  0.0000  0.0000  0.0000
  o =  0.1020  v = -0.0000 -0.0000 -0.0000  0.0000 -1.0000  0.0000  0.0000  0.0000  0.0000  0.0000      0.0000  0.0000  0.0000  0.0000  0.0000  0.0000  0.0000  0.0000  0.0000  0.0000
  o =  0.1020  v =  0.0000  0.0000  0.0000  0.0000  0.0000 -0.0000 -0.0000 -0.0000  0.0000 -1.0000      0.0000  0.0000  0.0000  0.0000  0.0000  0.0000  0.0000  0.0000  0.0000  0.0000
  o =  0.2492  v = -0.8353  0.0000  0.5498  0.0000  0.0000  0.0000  0.0000  0.0000  0.0000  0.0000      0.0000  0.0000  0.0000  0.0000  0.0000  0.0000  0.0000  0.0000  0.0000  0.0000
  o =  0.2492  v =  0.0000  0.0000  0.0000  0.0000  0.0000 -0.8353  0.0000  0.5498  0.0000  0.0000      0.0000  0.0000  0.0000  0.0000  0.0000  0.0000  0.0000  0.0000  0.0000  0.0000
  o =  0.2726  v =  0.0000  0.0000  0.0000  0.0000  0.0000  0.0000 -0.7071  0.0000  0.7071  0.0000      0.0000  0.0000  0.0000  0.0000  0.0000  0.0000  0.0000  0.0000  0.0000  0.0000
  o =  0.2726  v =  0.0000 -0.7071  0.0000  0.7071  0.0000  0.0000  0.0000  0.0000  0.0000  0.0000      0.0000  0.0000  0.0000  0.0000  0.0000  0.0000  0.0000  0.0000  0.0000  0.0000

atom =   2  type =  1  l = 2

 onsite density matrix

[...]

spin component  2

  0.1986  0.0000  0.0769  0.0000  0.0000
  0.0000  0.1863  0.0000  0.0864  0.0000
  0.0769  0.0000  0.1324  0.0000 -0.0000
  0.0000  0.0864  0.0000  0.1863  0.0000
  0.0000  0.0000 -0.0000  0.0000  0.1020

 occupancies and eigenvectors

  o =  0.0818  v = -0.5498 -0.0000  0.8353  0.0000  0.0000  0.0000  0.0000  0.0000  0.0000  0.0000      0.0000  0.0000  0.0000  0.0000  0.0000  0.0000  0.0000  0.0000  0.0000  0.0000
  o =  0.0818  v =  0.0000  0.0000  0.0000  0.0000  0.0000 -0.5498 -0.0000  0.8353  0.0000  0.0000      0.0000  0.0000  0.0000  0.0000  0.0000  0.0000  0.0000  0.0000  0.0000  0.0000
  o =  0.0999  v =  0.0000  0.7071  0.0000 -0.7071  0.0000  0.0000  0.0000  0.0000  0.0000  0.0000      0.0000  0.0000  0.0000  0.0000  0.0000  0.0000  0.0000  0.0000  0.0000  0.0000
  o =  0.0999  v =  0.0000  0.0000  0.0000  0.0000  0.0000  0.0000  0.7071  0.0000 -0.7071  0.0000      0.0000  0.0000  0.0000  0.0000  0.0000  0.0000  0.0000  0.0000  0.0000  0.0000
  o =  0.1020  v = -0.0000  0.0000  0.0000  0.0000 -1.0000  0.0000  0.0000  0.0000  0.0000  0.0000      0.0000  0.0000  0.0000  0.0000  0.0000  0.0000  0.0000  0.0000  0.0000  0.0000
  o =  0.1020  v =  0.0000  0.0000  0.0000  0.0000  0.0000 -0.0000  0.0000  0.0000  0.0000 -1.0000      0.0000  0.0000  0.0000  0.0000  0.0000  0.0000  0.0000  0.0000  0.0000  0.0000
  o =  0.2492  v = -0.8353 -0.0000 -0.5498  0.0000  0.0000  0.0000  0.0000  0.0000  0.0000  0.0000      0.0000  0.0000  0.0000  0.0000  0.0000  0.0000  0.0000  0.0000  0.0000  0.0000
  o =  0.2492  v =  0.0000  0.0000  0.0000  0.0000  0.0000 -0.8353 -0.0000 -0.5498  0.0000  0.0000      0.0000  0.0000  0.0000  0.0000  0.0000  0.0000  0.0000  0.0000  0.0000  0.0000
  o =  0.2726  v =  0.0000  0.0000  0.0000  0.0000  0.0000  0.0000  0.7071  0.0000  0.7071  0.0000      0.0000  0.0000  0.0000  0.0000  0.0000  0.0000  0.0000  0.0000  0.0000  0.0000
  o =  0.2726  v =  0.0000  0.7071  0.0000  0.7071  0.0000  0.0000  0.0000  0.0000  0.0000  0.0000      0.0000  0.0000  0.0000  0.0000  0.0000  0.0000  0.0000  0.0000  0.0000  0.0000

 eigenvalue-minimisations  : 10408
 total energy-change (2. order) :-0.2772590E+02  (-0.1203036E+03)
 number of electron      47.9999979 magnetization
 augmentation part       47.9999979 magnetization

 Free energy of the ion-electron system (eV)
  alpha Z        PSCENC =       184.33841299
  Ewald energy   TEWEN  =     -3605.32907450
  -Hartree energ DENC   =     -1218.09309747
  -exchange      EXHF   =         0.00000000
  -V(xc)+E(xc)   XCENC  =       236.15267559
  PAW double counting   =      7130.08114141    -7100.47968611
  entropy T*S    EENTRO =        -0.00000000
  eigenvalues    EBANDS =      -560.05454335
  atomic energy  EATOM  =      4905.65827411
  Solvation  Ediel_sol  =         0.00000000
  free energy    TOTEN  =       -27.72589732 eV

  energy without entropy =      -27.72589732  energy(sigma->0) =      -27.72589732

[...]

--------------------------------------- Iteration      1(   6)  ---------------------------------------

 eigenvalue-minimisations  :  7768
 total energy-change (2. order) :-0.4414397E-05  (-0.4408467E-05)
 number of electron      47.9999979 magnetization
 augmentation part       47.9999979 magnetization

 Free energy of the ion-electron system (eV)
  alpha Z        PSCENC =       184.33841299
  Ewald energy   TEWEN  =     -3605.32907450
  -Hartree energ DENC   =     -1218.09309747
  -exchange      EXHF   =         0.00000000
  -V(xc)+E(xc)   XCENC  =       236.15267559
  PAW double counting   =      7130.08114141    -7100.47968611
  entropy T*S    EENTRO =        -0.00000000
  eigenvalues    EBANDS =      -580.37585353
  atomic energy  EATOM  =      4905.65827411
  Solvation  Ediel_sol  =         0.00000000
  free energy    TOTEN  =       -48.04720750 eV

  energy without entropy =      -48.04720750  energy(sigma->0) =      -48.04720750

 average (electrostatic) potential at core
  the test charge radii are     1.0397  0.8742
  (the norm of the test charge is              1.0000)
       1 -76.5322       2 -76.5322       3 -78.5865       4 -78.5865       5 -78.5865
       6 -78.5865

 E-fermi :   5.7989     XC(G=0): -11.4644     alpha+bet :-14.2541

 Fermi energy:         5.7989414472

 k-point     1 :       0.0000    0.0000    0.5000
  band No.  band energies     occupation
      1     -52.3009      2.00000
      2     -52.3009      2.00000
      3     -28.8190      2.00000
      4     -28.8190      2.00000
      5     -28.4716      2.00000
      6     -28.4716      2.00000
      7     -28.4562      2.00000
      8     -28.4562      2.00000
      9     -11.3024      2.00000
     10     -11.3024      2.00000
     11     -11.2940      2.00000
     12     -11.2940      2.00000
     13       0.9995      2.00000
     14       0.9995      2.00000
     15       1.7687      2.00000
     16       1.7687      2.00000
     17       1.8409      2.00000
     18       1.8409      2.00000
     19       2.7083      2.00000
     20       2.7083      2.00000
     21       3.2003      2.00000
     22       3.2003      2.00000
     23       4.1000      2.00000
     24       4.1000      2.00000
     25       9.1791      0.00000
     26       9.3292      0.00000
     27       9.3292      0.00000
     28       9.6668      0.00000

[...]

 k-point   140 :       0.0000    0.0000    0.0000
  band No.  band energies     occupation
      1     -52.3486      2.00000
      2     -52.3319      2.00000
      3     -28.6053      2.00000
      4     -28.6053      2.00000
      5     -28.4520      2.00000
      6     -28.4520      2.00000
      7     -28.4078      2.00000
      8     -28.3753      2.00000
      9     -12.7791      2.00000
     10     -11.5101      2.00000
     11     -10.8482      2.00000
     12     -10.8482      2.00000
     13      -0.3035      2.00000
     14       0.2490      2.00000
     15       0.6639      2.00000
     16       1.7457      2.00000
     17       1.7457      2.00000
     18       2.8714      2.00000
     19       2.8714      2.00000
     20       3.4378      2.00000
     21       4.7666      2.00000
     22       5.0526      2.00000
     23       5.0526      2.00000
     24       5.6009      2.00000
     25       7.9469      0.00000
     26       8.5119      0.00000
     27       8.5232      0.00000
     28       8.5914      0.00000

 soft charge-density along one line, spin component           1
         0         1         2         3         4         5         6         7         8         9
 total charge-density along one line

------------------------ aborting loop because EDIFF is reached ----------------------------------------

  FORCE on cell =-STRESS in cart. coord.  units (eV):
  Direction    XX          YY          ZZ          XY          YZ          ZX
  Alpha Z   184.33841   184.33841   184.33841
  Ewald   -1386.37292 -1386.37292  -832.58596     0.00000     0.00000     0.00000
  Hartree   301.47845   301.47845   612.05989    -0.00000    -0.00000    -0.00000
  E(xc)    -246.74296  -246.74296  -246.07947    -0.00000    -0.00000     0.00000
  Local      82.19943    82.19943  -770.67875    -0.00000    -0.00000    -0.00000
  n-local    21.25312    20.18459    16.24020    -0.42752     0.00014     0.00017
  augment   291.68923   291.68923   291.67225    -0.00000    -0.00000    -0.00000
  Kinetic   758.33095   760.34095   753.67568     0.06865    -0.00016    -0.00013
  Fock        0.00000     0.00000     0.00000     0.00000     0.00000     0.00000
  Total       6.64445     6.64445     8.64226     0.00000     0.00000     0.00000
  in kB     171.56038   171.56038   223.14397     0.00000     0.00000     0.00000

 VOLUME and BASIS-vectors are now :
  energy-cutoff  :      500.00
  volume of cell :       62.05
      direct lattice vectors                 reciprocal lattice vectors
     4.584000000  0.000000000  0.000000000     0.218150087  0.000000000  0.000000000
     0.000000000  4.584000000  0.000000000     0.000000000  0.218150087  0.000000000
     0.000000000  0.000000000  2.953000000     0.000000000  0.000000000  0.338638673

  length of vectors
     4.584000000  4.584000000  2.953000000     0.218150087  0.218150087  0.338638673

 FORCES acting on ions
    electron-ion (+dipol)            ewald-force                    non-local-force                 convergence-correction
   -.194E-13 -.299E-14 -.736E-13   0.853E-13 0.568E-13 0.110E-13   0.879E-21 -.140E-21 0.149E-21   0.183E-11 0.173E-11 -.164E-11
   0.113E-11 0.406E-11 0.295E-11   -.568E-13 0.000E+00 0.128E-13   -.314E-21 0.318E-21 0.143E-21   0.272E-12 -.874E-12 0.396E-10
   -.413E+02 0.413E+02 0.114E-11   0.454E+02 -.454E+02 -.972E-14   -.390E+01 0.390E+01 0.320E-21   -.118E+00 0.118E+00 -.205E-13
   0.413E+02 -.413E+02 -.405E-11   -.454E+02 0.454E+02 -.920E-14   0.390E+01 -.390E+01 0.134E-21   0.118E+00 -.118E+00 0.353E-11
   0.413E+02 0.413E+02 0.204E-06   -.454E+02 -.454E+02 -.805E-14   0.390E+01 0.390E+01 0.387E-21   0.118E+00 0.118E+00 -.117E-11
   -.413E+02 -.413E+02 -.204E-06   0.454E+02 0.454E+02 -.767E-14   -.390E+01 -.390E+01 0.290E-21   -.118E+00 -.118E+00 -.396E-11
   0.200E-11 0.325E-11 0.698E-11   -.711E-14 -.711E-14 -.108E-13   -.444E-15 0.000E+00 0.142E-20   0.224E-11 0.138E-11 0.364E-10

 POSITION                                       TOTAL-FORCE (eV/Angst)
      0.00000      0.00000      0.00000         0.000000      0.000000     -0.000000
      2.29200      2.29200      1.47650        -0.000000     -0.000000     -0.000000
      0.89942      3.68458      1.47650         0.147590     -0.147590     -0.000000
      3.68458      0.89942      1.47650        -0.147590      0.147590      0.000000
      1.39258      1.39258      0.00000        -0.147590     -0.147590     -0.000000
      3.19142      3.19142      0.00000         0.147590      0.147590      0.000000
    total drift:                                0.000000      0.000000      0.000000

  FREE ENERGIE OF THE ION-ELECTRON SYSTEM (eV)
  free  energy   TOTEN  =       -48.04720750 eV

  energy  without entropy=      -48.04720750  energy(sigma->0) =      -48.04720750

 writing wavefunctions