 vasp.6.2.0 18Jan21 (build Oct 14 2021 17:49:53) complex

 executed on             LinuxIFC date 2022.04.02  10:37:05

 INCAR:
   SYSTEM = TiO2
   ISTART = 1
   ICHARG = 0
   ISMEAR = 0
   SIGMA = 0.01
   LOUT = 10
   ENCUT = 460
   EDIFF = 0.1E-04

 POTCAR:    PAW_PBE Ti_sv 26Sep2005
 POTCAR:   PAW_PBE O_s 07Sep2000
 POTCAR:    PAW_PBE Ti_sv 26Sep2005
   VRHFIN =Ti: 3p4s3d

   TITEL  = PAW_PBE Ti_sv 26Sep2005
   POMASS =   47.880; ZVAL   =   12.000    mass and valenz
   ENMAX  =  274.610; ENMIN  =  205.957 eV

   TITEL  = PAW_PBE O_s 07Sep2000
   POMASS =   16.000; ZVAL   =    6.000    mass and valenz
   ENMAX  =  282.853; ENMIN  =  212.140 eV

  PAW_PBE Ti_sv 26Sep2005               :
 PAW_PBE O_s 07Sep2000                  :

 POSCAR: Rutile TiO2
  positions in direct lattice
 exchange correlation table for  LEXCH =        8
   RHO(1)=    0.500       N(1)  =     2000
   RHO(2)=  100.500       N(2)  =     4000

 ion  position               nearest neighbor table
   1  0.000  0.000  0.000-   3 1.95   4 1.95   3 1.95   4 1.95   5 1.97   6 1.97
   2  0.500  0.500  0.500-   5 1.95   6 1.95   5 1.95   6 1.95   3 1.97   4 1.97
   3  0.196  0.804  0.500-   1 1.95   1 1.95   2 1.97
   4  0.804  0.196  0.500-   1 1.95   1 1.95   2 1.97
   5  0.304  0.304  0.000-   2 1.95   2 1.95   1 1.97
   6  0.696  0.696  0.000-   2 1.95   2 1.95   1 1.97

  LATTYP: Found a simple tetragonal cell.
 ALAT       =     4.5840000000
 C/A-ratio  =     0.6441972077

  Lattice vectors:

 A1 = (   4.5840000000,   0.0000000000,   0.0000000000)
 A2 = (   0.0000000000,   4.5840000000,   0.0000000000)
 A3 = (   0.0000000000,   0.0000000000,   2.9530000000)

Analysis of symmetry for initial positions (statically):
 Subroutine PRICEL returns:
 Original cell was already a primitive cell.

 Routine SETGRP: Setting up the symmetry group for a
 simple tetragonal supercell.

 Subroutine GETGRP returns: Found 16 space group operations
 (whereof  8 operations were pure point group operations)
 out of a pool of 16 trial point group operations.

The static configuration has the point symmetry D_2h.
 The point group associated with its full space group is D_4h.

Analysis of symmetry for dynamics (positions and initial velocities):
 Subroutine PRICEL returns:
 Original cell was already a primitive cell.

 Routine SETGRP: Setting up the symmetry group for a
 simple tetragonal supercell.

 Subroutine GETGRP returns: Found 16 space group operations
 (whereof  8 operations were pure point group operations)
 out of a pool of 16 trial point group operations.

The dynamic configuration has the point symmetry D_2h.
 The point group associated with its full space group is D_4h.

 Subroutine INISYM returns: Found 16 space group operations
 (whereof  8 operations are pure point group operations),
 and found     1 'primitive' translations

                                     Primitive cell

  volume of cell :      62.0516

  direct lattice vectors                    reciprocal lattice vectors
     4.584000000  0.000000000  0.000000000     0.218150087  0.000000000  0.000000000
     0.000000000  4.584000000  0.000000000     0.000000000  0.218150087  0.000000000
     0.000000000  0.000000000  2.953000000     0.000000000  0.000000000  0.338638673

  length of vectors
     4.584000000  4.584000000  2.953000000     0.218150087  0.218150087  0.338638673

  position of ions in fractional coordinates (direct lattice)
     0.000000000  0.000000000  0.000000000
     0.500000000  0.500000000  0.500000000
     0.196209329  0.803790671  0.500000000
     0.803790671  0.196209329  0.500000000
     0.303790671  0.303790671  0.000000000
     0.696209329  0.696209329  0.000000000

  ion indices of the primitive-cell ions
   primitive index   ion index
                 1           1
                 2           2
                 3           3
                 4           4
                 5           5
                 6           6

 KPOINTS: Automatic KPOINTS generation

Automatic generation of k-mesh.
 Grid dimensions read from file:
 generate k-points for:    8    8    8

 Generating k-lattice:

  Cartesian coordinates                     Fractional coordinates (reciprocal lattice)
     0.027268761  0.000000000  0.000000000     0.125000000  0.000000000  0.000000000
     0.000000000  0.027268761  0.000000000     0.000000000  0.125000000  0.000000000
     0.000000000  0.000000000  0.042329834     0.000000000  0.000000000  0.125000000

  Length of vectors
     0.027268761  0.027268761  0.042329834

  Shift w.r.t. Gamma in fractional coordinates (k-lattice)
     0.000000000  0.000000000  0.000000000

 Subroutine IBZKPT returns following result:

 Found     75 irreducible k-points:

 Following reciprocal coordinates:
            Coordinates               Weight
  0.000000  0.000000  0.000000      1.000000
  0.125000  0.000000  0.000000      4.000000
  0.250000  0.000000  0.000000      4.000000
  0.375000  0.000000  0.000000      4.000000
  0.500000  0.000000  0.000000      2.000000
  0.125000  0.125000  0.000000      4.000000
  0.250000  0.125000  0.000000      8.000000
  0.375000  0.125000  0.000000      8.000000
  0.500000  0.125000  0.000000      4.000000
  0.250000  0.250000  0.000000      4.000000
  0.375000  0.250000  0.000000      8.000000
  0.500000  0.250000  0.000000      4.000000
  0.375000  0.375000  0.000000      4.000000
  0.500000  0.375000  0.000000      4.000000
  0.500000  0.500000  0.000000      1.000000
  0.000000  0.000000  0.125000      2.000000
  0.125000  0.000000  0.125000      8.000000
  0.250000  0.000000  0.125000      8.000000
  0.375000  0.000000  0.125000      8.000000
  0.500000  0.000000  0.125000      4.000000
  0.125000  0.125000  0.125000      8.000000
  0.250000  0.125000  0.125000     16.000000
  0.375000  0.125000  0.125000     16.000000
  0.500000  0.125000  0.125000      8.000000
  0.250000  0.250000  0.125000      8.000000
  0.375000  0.250000  0.125000     16.000000
  0.500000  0.250000  0.125000      8.000000
  0.375000  0.375000  0.125000      8.000000
  0.500000  0.375000  0.125000      8.000000
  0.500000  0.500000  0.125000      2.000000
  0.000000  0.000000  0.250000      2.000000
  0.125000  0.000000  0.250000      8.000000
  0.250000  0.000000  0.250000      8.000000
  0.375000  0.000000  0.250000      8.000000
  0.500000  0.000000  0.250000      4.000000
  0.125000  0.125000  0.250000      8.000000
  0.250000  0.125000  0.250000     16.000000
  0.375000  0.125000  0.250000     16.000000
  0.500000  0.125000  0.250000      8.000000
  0.250000  0.250000  0.250000      8.000000
  0.375000  0.250000  0.250000     16.000000
  0.500000  0.250000  0.250000      8.000000
  0.375000  0.375000  0.250000      8.000000
  0.500000  0.375000  0.250000      8.000000
  0.500000  0.500000  0.250000      2.000000
  0.000000  0.000000  0.375000      2.000000
  0.125000  0.000000  0.375000      8.000000
  0.250000  0.000000  0.375000      8.000000
  0.375000  0.000000  0.375000      8.000000
  0.500000  0.000000  0.375000      4.000000
  0.125000  0.125000  0.375000      8.000000
  0.250000  0.125000  0.375000     16.000000
  0.375000  0.125000  0.375000     16.000000
  0.500000  0.125000  0.375000      8.000000
  0.250000  0.250000  0.375000      8.000000
  0.375000  0.250000  0.375000     16.000000
  0.500000  0.250000  0.375000      8.000000
  0.375000  0.375000  0.375000      8.000000
  0.500000  0.375000  0.375000      8.000000
  0.500000  0.500000  0.375000      2.000000
  0.000000  0.000000  0.500000      1.000000
  0.125000  0.000000  0.500000      4.000000
  0.250000  0.000000  0.500000      4.000000
  0.375000  0.000000  0.500000      4.000000
  0.500000  0.000000  0.500000      2.000000
  0.125000  0.125000  0.500000      4.000000
  0.250000  0.125000  0.500000      8.000000
  0.375000  0.125000  0.500000      8.000000
  0.500000  0.125000  0.500000      4.000000
  0.250000  0.250000  0.500000      4.000000
  0.375000  0.250000  0.500000      8.000000
  0.500000  0.250000  0.500000      4.000000
  0.375000  0.375000  0.500000      4.000000
  0.500000  0.375000  0.500000      4.000000
  0.500000  0.500000  0.500000      1.000000

 Following cartesian coordinates:
            Coordinates               Weight
  0.000000  0.000000  0.000000      1.000000
  0.027269  0.000000  0.000000      4.000000
  0.054538  0.000000  0.000000      4.000000
  0.081806  0.000000  0.000000      4.000000
  0.109075  0.000000  0.000000      2.000000
  0.027269  0.027269  0.000000      4.000000
  0.054538  0.027269  0.000000      8.000000
  0.081806  0.027269  0.000000      8.000000
  0.109075  0.027269  0.000000      4.000000
  0.054538  0.054538  0.000000      4.000000
  0.081806  0.054538  0.000000      8.000000
  0.109075  0.054538  0.000000      4.000000
  0.081806  0.081806  0.000000      4.000000
  0.109075  0.081806  0.000000      4.000000
  0.109075  0.109075  0.000000      1.000000
  0.000000  0.000000  0.042330      2.000000
  0.027269  0.000000  0.042330      8.000000
  0.054538  0.000000  0.042330      8.000000
  0.081806  0.000000  0.042330      8.000000
  0.109075  0.000000  0.042330      4.000000
  0.027269  0.027269  0.042330      8.000000
  0.054538  0.027269  0.042330     16.000000
  0.081806  0.027269  0.042330     16.000000
  0.109075  0.027269  0.042330      8.000000
  0.054538  0.054538  0.042330      8.000000
  0.081806  0.054538  0.042330     16.000000
  0.109075  0.054538  0.042330      8.000000
  0.081806  0.081806  0.042330      8.000000
  0.109075  0.081806  0.042330      8.000000
  0.109075  0.109075  0.042330      2.000000
  0.000000  0.000000  0.084660      2.000000
  0.027269  0.000000  0.084660      8.000000
  0.054538  0.000000  0.084660      8.000000
  0.081806  0.000000  0.084660      8.000000
  0.109075  0.000000  0.084660      4.000000
  0.027269  0.027269  0.084660      8.000000
  0.054538  0.027269  0.084660     16.000000
  0.081806  0.027269  0.084660     16.000000
  0.109075  0.027269  0.084660      8.000000
  0.054538  0.054538  0.084660      8.000000
  0.081806  0.054538  0.084660     16.000000
  0.109075  0.054538  0.084660      8.000000
  0.081806  0.081806  0.084660      8.000000
  0.109075  0.081806  0.084660      8.000000
  0.109075  0.109075  0.084660      2.000000
  0.000000  0.000000  0.126990      2.000000
  0.027269  0.000000  0.126990      8.000000
  0.054538  0.000000  0.126990      8.000000
  0.081806  0.000000  0.126990      8.000000
  0.109075  0.000000  0.126990      4.000000
  0.027269  0.027269  0.126990      8.000000
  0.054538  0.027269  0.126990     16.000000
  0.081806  0.027269  0.126990     16.000000
  0.109075  0.027269  0.126990      8.000000
  0.054538  0.054538  0.126990      8.000000
  0.081806  0.054538  0.126990     16.000000
  0.109075  0.054538  0.126990      8.000000
  0.081806  0.081806  0.126990      8.000000
  0.109075  0.081806  0.126990      8.000000
  0.109075  0.109075  0.126990      2.000000
  0.000000  0.000000  0.169319      1.000000
  0.027269  0.000000  0.169319      4.000000
  0.054538  0.000000  0.169319      4.000000
  0.081806  0.000000  0.169319      4.000000
  0.109075  0.000000  0.169319      2.000000
  0.027269  0.027269  0.169319      4.000000
[...]
   0.25000000  0.25000000  0.25000000       0.016
   0.37500000  0.25000000  0.25000000       0.031
   0.50000000  0.25000000  0.25000000       0.016
   0.37500000  0.37500000  0.25000000       0.016
   0.50000000  0.37500000  0.25000000       0.016
   0.50000000  0.50000000  0.25000000       0.004
   0.00000000  0.00000000  0.37500000       0.004
   0.12500000  0.00000000  0.37500000       0.016
   0.25000000  0.00000000  0.37500000       0.016
   0.37500000  0.00000000  0.37500000       0.016
   0.50000000  0.00000000  0.37500000       0.008
   0.12500000  0.12500000  0.37500000       0.016
   0.25000000  0.12500000  0.37500000       0.031
   0.37500000  0.12500000  0.37500000       0.031
   0.50000000  0.12500000  0.37500000       0.016
   0.25000000  0.25000000  0.37500000       0.016
   0.37500000  0.25000000  0.37500000       0.031
   0.50000000  0.25000000  0.37500000       0.016
   0.37500000  0.37500000  0.37500000       0.016
   0.50000000  0.37500000  0.37500000       0.016
   0.50000000  0.50000000  0.37500000       0.004
   0.00000000  0.00000000  0.50000000       0.002
   0.12500000  0.00000000  0.50000000       0.008
   0.25000000  0.00000000  0.50000000       0.008
   0.37500000  0.00000000  0.50000000       0.008
   0.50000000  0.00000000  0.50000000       0.004
   0.12500000  0.12500000  0.50000000       0.008
   0.25000000  0.12500000  0.50000000       0.016
   0.37500000  0.12500000  0.50000000       0.016
   0.50000000  0.12500000  0.50000000       0.008
   0.25000000  0.25000000  0.50000000       0.008
   0.37500000  0.25000000  0.50000000       0.016
   0.50000000  0.25000000  0.50000000       0.008
   0.37500000  0.37500000  0.50000000       0.008
   0.50000000  0.37500000  0.50000000       0.008
   0.50000000  0.50000000  0.50000000       0.002

 position of ions in fractional coordinates (direct lattice)
   0.00000000  0.00000000  0.00000000
   0.50000000  0.50000000  0.50000000
   0.19620933  0.80379067  0.50000000
   0.80379067  0.19620933  0.50000000
   0.30379067  0.30379067  0.00000000
   0.69620933  0.69620933  0.00000000

 position of ions in cartesian coordinates  (Angst):
   0.00000000  0.00000000  0.00000000
   2.29200000  2.29200000  1.47650000
   0.89942357  3.68457643  1.47650000
   3.68457643  0.89942357  1.47650000
   1.39257643  1.39257643  0.00000000
   3.19142357  3.19142357  0.00000000

 k-point   1 :   0.0000 0.0000 0.0000  plane waves:    1399
 k-point   2 :   0.1250 0.0000 0.0000  plane waves:    1384
 k-point   3 :   0.2500 0.0000 0.0000  plane waves:    1388
 k-point   4 :   0.3750 0.0000 0.0000  plane waves:    1376
 k-point   5 :   0.5000 0.0000 0.0000  plane waves:    1380
 k-point   6 :   0.1250 0.1250 0.0000  plane waves:    1387
 k-point   7 :   0.2500 0.1250 0.0000  plane waves:    1383
 k-point   8 :   0.3750 0.1250 0.0000  plane waves:    1384
 k-point   9 :   0.5000 0.1250 0.0000  plane waves:    1378
 k-point  10 :   0.2500 0.2500 0.0000  plane waves:    1403
 k-point  11 :   0.3750 0.2500 0.0000  plane waves:    1392
 k-point  12 :   0.5000 0.2500 0.0000  plane waves:    1390
 k-point  13 :   0.3750 0.3750 0.0000  plane waves:    1392
 k-point  14 :   0.5000 0.3750 0.0000  plane waves:    1386
 k-point  15 :   0.5000 0.5000 0.0000  plane waves:    1400
 k-point  16 :   0.0000 0.0000 0.1250  plane waves:    1383
 k-point  17 :   0.1250 0.0000 0.1250  plane waves:    1386
 k-point  18 :   0.2500 0.0000 0.1250  plane waves:    1388
 k-point  19 :   0.3750 0.0000 0.1250  plane waves:    1386
 k-point  20 :   0.5000 0.0000 0.1250  plane waves:    1374
 k-point  21 :   0.1250 0.1250 0.1250  plane waves:    1387
 k-point  22 :   0.2500 0.1250 0.1250  plane waves:    1387
 k-point  23 :   0.3750 0.1250 0.1250  plane waves:    1385
 k-point  24 :   0.5000 0.1250 0.1250  plane waves:    1376
 k-point  25 :   0.2500 0.2500 0.1250  plane waves:    1397
 k-point  26 :   0.3750 0.2500 0.1250  plane waves:    1389
 k-point  27 :   0.5000 0.2500 0.1250  plane waves:    1390
 k-point  28 :   0.3750 0.3750 0.1250  plane waves:    1388
 k-point  29 :   0.5000 0.3750 0.1250  plane waves:    1392
 k-point  30 :   0.5000 0.5000 0.1250  plane waves:    1384
 k-point  31 :   0.0000 0.0000 0.2500  plane waves:    1382
 k-point  32 :   0.1250 0.0000 0.2500  plane waves:    1394
 k-point  33 :   0.2500 0.0000 0.2500  plane waves:    1389
 k-point  34 :   0.3750 0.0000 0.2500  plane waves:    1393
 k-point  35 :   0.5000 0.0000 0.2500  plane waves:    1384
 k-point  36 :   0.1250 0.1250 0.2500  plane waves:    1394
 k-point  37 :   0.2500 0.1250 0.2500  plane waves:    1388
 k-point  38 :   0.3750 0.1250 0.2500  plane waves:    1391
 k-point  39 :   0.5000 0.1250 0.2500  plane waves:    1386
 k-point  40 :   0.2500 0.2500 0.2500  plane waves:    1385
 k-point  41 :   0.3750 0.2500 0.2500  plane waves:    1391
 k-point  42 :   0.5000 0.2500 0.2500  plane waves:    1396
 k-point  43 :   0.3750 0.3750 0.2500  plane waves:    1389
 k-point  44 :   0.5000 0.3750 0.2500  plane waves:    1392
 k-point  45 :   0.5000 0.5000 0.2500  plane waves:    1404
 k-point  46 :   0.0000 0.0000 0.3750  plane waves:    1366
 k-point  47 :   0.1250 0.0000 0.3750  plane waves:    1381
 k-point  48 :   0.2500 0.0000 0.3750  plane waves:    1391
 k-point  49 :   0.3750 0.0000 0.3750  plane waves:    1392
 k-point  50 :   0.5000 0.0000 0.3750  plane waves:    1388
 k-point  51 :   0.1250 0.1250 0.3750  plane waves:    1384
 k-point  52 :   0.2500 0.1250 0.3750  plane waves:    1389
 k-point  53 :   0.3750 0.1250 0.3750  plane waves:    1399
 k-point  54 :   0.5000 0.1250 0.3750  plane waves:    1404
 k-point  55 :   0.2500 0.2500 0.3750  plane waves:    1400
 k-point  56 :   0.3750 0.2500 0.3750  plane waves:    1394
 k-point  57 :   0.5000 0.2500 0.3750  plane waves:    1396
 k-point  58 :   0.3750 0.3750 0.3750  plane waves:    1395
 k-point  59 :   0.5000 0.3750 0.3750  plane waves:    1400
 k-point  60 :   0.5000 0.5000 0.3750  plane waves:    1424
 k-point  61 :   0.0000 0.0000 0.5000  plane waves:    1362
 k-point  62 :   0.1250 0.0000 0.5000  plane waves:    1370
 k-point  63 :   0.2500 0.0000 0.5000  plane waves:    1386
 k-point  64 :   0.3750 0.0000 0.5000  plane waves:    1388
 k-point  65 :   0.5000 0.0000 0.5000  plane waves:    1388
 k-point  66 :   0.1250 0.1250 0.5000  plane waves:    1380
 k-point  67 :   0.2500 0.1250 0.5000  plane waves:    1398
 k-point  68 :   0.3750 0.1250 0.5000  plane waves:    1398
 k-point  69 :   0.5000 0.1250 0.5000  plane waves:    1384
 k-point  70 :   0.2500 0.2500 0.5000  plane waves:    1396
 k-point  71 :   0.3750 0.2500 0.5000  plane waves:    1406
 k-point  72 :   0.5000 0.2500 0.5000  plane waves:    1404
 k-point  73 :   0.3750 0.3750 0.5000  plane waves:    1410
 k-point  74 :   0.5000 0.3750 0.5000  plane waves:    1416
 k-point  75 :   0.5000 0.5000 0.5000  plane waves:    1432

 maximum and minimum number of plane-waves per node :      1432     1362

 maximum number of plane-waves:      1432
 maximum index in each direction:
   IXMAX=    8   IYMAX=    8   IZMAX=    5
   IXMIN=   -8   IYMIN=   -8   IZMIN=   -5

 serial   3D FFT for wavefunctions
 parallel 3D FFT for charge:
    minimum data exchange during FFTs selected (reduces bandwidth)

 Broyden mixing: mesh for mixing (old mesh)
   NGX = 17   NGY = 17   NGZ = 11
  (NGX  = 48   NGY  = 48   NGZ  = 32)
  gives a total of   3179 points

 charge density for first step will be calculated from the start-wavefunctions

 Maximum index for augmentation-charges         1415 (set IRDMAX)

 initial charge from wavefunction
 First call to EWALD:  gamma=   0.448
 Maximum number of real-space cells 2x 2x 4
 Maximum number of reciprocal cells 3x 3x 2

--------------------------------------- Iteration      1(   1)  ---------------------------------------

 eigenvalue-minimisations  :  5724
 total energy-change (2. order) :-0.4851001E+02  (-0.3532647E+02)
 number of electron      47.9999861 magnetization
 augmentation part       12.3891838 magnetization

 Broyden mixing:
  rms(total) = 0.28256E+01    rms(broyden)= 0.28256E+01
  rms(prec ) = 0.28738E+01
  weight for this iteration     100.00

 Free energy of the ion-electron system (eV)
  alpha Z        PSCENC =       184.33841299
  Ewald energy   TEWEN  =     -3605.32907450
  -Hartree energ DENC   =     -1216.26544692
  -exchange      EXHF   =         0.00000000
  -V(xc)+E(xc)   XCENC  =       236.01270431
  PAW double counting   =      7402.25405781    -7386.75226356
  entropy T*S    EENTRO =        -0.00000000
  eigenvalues    EBANDS =      -568.40764714
  atomic energy  EATOM  =      4905.63925112
  Solvation  Ediel_sol  =         0.00000000
  free energy    TOTEN  =       -48.51000588 eV

  energy without entropy =      -48.51000588  energy(sigma->0) =      -48.51000588

[...]

 eigenvalues of (default mixing * dielectric matrix)
  average eigenvalue GAMMA=   1.9837
  1.9837

[...]

 eigenvalue-minimisations  :  5496
 total energy-change (2. order) : 0.3062422E+00  (-0.1337033E+00)
 number of electron      47.9999858 magnetization
 augmentation part       12.1681195 magnetization

[...]

 eigenvalue-minimisations  :  5404
 total energy-change (2. order) : 0.1233346E-04  (-0.1042191E-04)
 number of electron      47.9999860 magnetization
 augmentation part       12.0979682 magnetization

 Broyden mixing:
  rms(total) = 0.31086E-02    rms(broyden)= 0.31085E-02
  rms(prec ) = 0.31604E-02
  weight for this iteration     100.00

 eigenvalues of (default mixing * dielectric matrix)
  average eigenvalue GAMMA=   1.4043
  2.7449  2.2757  2.2757  0.6021  1.1051  1.1051  0.8176  0.8176  0.8954

[...]

--------------------------------------- Iteration      1(  11)  ---------------------------------------

 eigenvalue-minimisations  :  2776
 total energy-change (2. order) :-0.5603069E-06  (-0.4372458E-06)
 number of electron      47.9999860 magnetization
 augmentation part       12.0979682 magnetization

 Free energy of the ion-electron system (eV)
  alpha Z        PSCENC =       184.33841299
  Ewald energy   TEWEN  =     -3605.32907450
  -Hartree energ DENC   =     -1224.17394769
  -exchange      EXHF   =         0.00000000
  -V(xc)+E(xc)   XCENC  =       236.18841691
  PAW double counting   =      7134.60906657    -7107.32266268
  entropy T*S    EENTRO =        -0.00000000
  eigenvalues    EBANDS =      -577.55885505
  atomic energy  EATOM  =      4905.63925112
  Solvation  Ediel_sol  =         0.00000000
  free energy    TOTEN  =       -53.60939232 eV

  energy without entropy =      -53.60939232  energy(sigma->0) =      -53.60939232

 average (electrostatic) potential at core
  the test charge radii are     1.0397  0.8742
  (the norm of the test charge is              1.0000)
       1 -75.7688       2 -75.7688       3 -78.9089       4 -78.9089       5 -78.9089
       6 -78.9089

 E-fermi :   5.5346     XC(G=0): -11.4528     alpha+bet :-14.2541

 Fermi energy:         5.5345523369

 k-point     1 :       0.0000    0.0000    0.0000
  band No.  band energies     occupation
      1     -51.6351      2.00000
      2     -51.6176      2.00000
      3     -27.9484      2.00000
      4     -27.9484      2.00000
      5     -27.7794      2.00000
      6     -27.7794      2.00000
      7     -27.7400      2.00000
      8     -27.7050      2.00000
      9     -12.9522      2.00000
     10     -11.7724      2.00000
     11     -11.0325      2.00000
     12     -11.0325      2.00000
     13      -0.5211      2.00000
     14      -0.1079      2.00000
     15       0.3157      2.00000
     16       1.4495      2.00000
     17       1.4495      2.00000
     18       2.7133      2.00000
     19       2.7133      2.00000
     20       3.2776      2.00000
     21       4.5711      2.00000
     22       4.8251      2.00000
     23       4.8251      2.00000
     24       5.3057      2.00000
     25       7.1341      0.00000
     26       7.4147      0.00000
     27       7.6682      0.00000
     28       7.7759      0.00000

[...]

 k-point    75 :       0.5000    0.5000    0.5000
  band No.  band energies     occupation
      1     -51.5853      2.00000
      2     -51.5853      2.00000
      3     -28.1759      2.00000
      4     -28.1759      2.00000
      5     -27.8057      2.00000
      6     -27.8057      2.00000
      7     -27.7849      2.00000
      8     -27.7849      2.00000
      9     -11.6420      2.00000
     10     -11.6420      2.00000
     11     -11.3669      2.00000
     12     -11.3669      2.00000
     13       0.5175      2.00000
     14       0.5175      2.00000
     15       0.6802      2.00000
     16       0.6802      2.00000
     17       1.7224      2.00000
     18       1.7224      2.00000
     19       2.5281      2.00000
     20       2.5281      2.00000
     21       3.9792      2.00000
     22       3.9792      2.00000
     23       4.6208      2.00000
     24       4.6208      2.00000
     25       7.8943      0.00000
     26       7.8943      0.00000
     27       8.4868      0.00000
     28       8.4869      0.00000

 soft charge-density along one line, spin component           1
         0         1         2         3         4         5         6         7         8         9
 total charge-density along one line

------------------------ aborting loop because EDIFF is reached ----------------------------------------

  FORCE on cell =-STRESS in cart. coord.  units (eV):
  Direction    XX          YY          ZZ          XY          YZ          ZX
  Alpha Z   184.33841   184.33841   184.33841
  Ewald   -1386.37292 -1386.37292  -832.58596    -0.00000    -0.00000    -0.00000
  Hartree   302.65114   302.65114   618.87108    -0.00000    -0.00000    -0.00000
  E(xc)    -246.74635  -246.74635  -246.06334     0.00000     0.00000     0.00000
  Local      83.57027    83.57027  -776.10935    -0.00000     0.00000    -0.00000
  n-local    14.65956    16.31644    10.61325    -1.03924    -0.02239    -0.21384
  augment   290.72393   290.72393   290.69843     0.00000     0.00000     0.00000
  Kinetic   760.77098   757.17868   752.83628     0.01224    -0.59698    -1.11328
  Fock        0.00000     0.00000     0.00000     0.00000     0.00000     0.00000
  Total       2.62732     2.62732     2.59882     0.00000     0.00000     0.00000
  in kB      67.83755    67.83755    67.10171     0.00000     0.00000     0.00000

 VOLUME and BASIS-vectors are now :
  energy-cutoff  :      460.00
  volume of cell :       62.05
      direct lattice vectors                 reciprocal lattice vectors
     4.584000000  0.000000000  0.000000000     0.218150087  0.000000000  0.000000000
     0.000000000  4.584000000  0.000000000     0.000000000  0.218150087  0.000000000
     0.000000000  0.000000000  2.953000000     0.000000000  0.000000000  0.338638673

  length of vectors
     4.584000000  4.584000000  2.953000000     0.218150087  0.218150087  0.338638673

 FORCES acting on ions
    electron-ion (+dipol)            ewald-force                    non-local-force                 convergence-correction
   0.426E-13 -.106E-12 -.678E-13   0.853E-13 0.568E-13 0.110E-13   0.317E-23 -.318E-23 -.192E-22   -.132E-12 0.205E-12 0.373E-13
   0.242E-11 -.150E-11 -.200E-11   -.568E-13 0.000E+00 0.128E-13   -.101E-23 -.231E-23 -.275E-22   -.214E-13 -.201E-12 0.438E-13
   -.416E+02 0.416E+02 0.780E-12   0.454E+02 -.454E+02 -.972E-14   -.383E+01 0.383E+01 0.451E-17   -.359E-03 0.359E-03 -.454E-13
   0.416E+02 -.416E+02 -.390E-11   -.454E+02 0.454E+02 -.920E-14   0.383E+01 -.383E+01 0.433E-17   0.359E-03 -.359E-03 0.119E-13
   0.416E+02 0.416E+02 -.160E-05   -.454E+02 -.454E+02 -.805E-14   0.383E+01 0.383E+01 -.210E-17   0.359E-03 0.359E-03 -.450E-13
   -.416E+02 -.416E+02 0.160E-05   0.454E+02 0.454E+02 -.767E-14   -.383E+01 -.383E+01 -.226E-17   -.359E-03 -.359E-03 0.114E-13
   0.300E-11 -.171E-11 -.436E-11   -.711E-14 -.711E-14 -.108E-13   0.000E+00 -.444E-15 0.449E-17   -.168E-12 -.148E-13 0.139E-13

 POSITION                                       TOTAL-FORCE (eV/Angst)
      0.00000      0.00000      0.00000         0.000000      0.000000     -0.000000
      2.29200      2.29200      1.47650         0.000000      0.000000     -0.000000
      0.89942      3.68458      1.47650         0.001130     -0.001130      0.000000
      3.68458      0.89942      1.47650        -0.001130      0.001130      0.000000
      1.39258      1.39258      0.00000        -0.001130     -0.001130      0.000000
      3.19142      3.19142      0.00000         0.001130      0.001130      0.000000
    total drift:                                0.000000     -0.000000     -0.000000

  FREE ENERGIE OF THE ION-ELECTRON SYSTEM (eV)
  free  energy   TOTEN  =       -53.60939232 eV

  energy  without entropy=      -53.60939232  energy(sigma->0) =      -53.60939232

 writing wavefunctions